 O Si Au 
 1.0000000000000000
    18.1541673199999991    0.0003963400000000    0.0000389000000000
    -9.0767404299999992   15.7217942399999995    0.0000413600000000
     0.0000163600000000    0.0000295300000000    7.6305892899999996
 O   Si  Au 
  72  36   8
Cartesian
 15.3651985342697053  4.4675723279359847  0.2482670910399601
  6.2398046974104915 11.5782548654549835  0.1814939547515013
  4.7179911463513102  0.1835278760850274  0.1229397650355842
 11.2585331993997357 11.5220668194698685  4.1655869315807221
  2.1099291059843459  4.6026036143952389  4.0853599362818303
 12.8704026892209598  0.3003627850105699  4.0378364799310615
 12.7137789001861847  0.2217474107376551  0.2321389505534535
  2.1728658671031056  4.4066863544348314  0.3151260452125885
 11.0981964335544365 11.8421499478378731  0.3241715374140138
  4.6050703233799304  0.1482992515912820  4.0399397146075593
  6.2003690617884839 11.5718819971454749  4.1116382449673488
 15.3106299188839223  4.4369340281904037  4.0732768431299746
 -2.4451301670461150  7.0765819212595744  7.3603196956191299
  3.8347866542103111 10.9764338268964270  7.2511741130952592
 -2.4629354009178828 14.2365906895341610  7.2785258390779903
 10.4607175048205860  9.0456333527267443  3.6217504126554920
  4.5664395919625527  5.2559837810343071  3.4167819793408944
 10.6311834298455636  1.7983667952945868  3.5471169494449009
  1.8306132875885739 14.0035714498065484  7.3984670852846630
  1.7860411319755167  6.8996051698068834  7.1902473543572381
 -4.6382878143664703 10.8596499540539604  7.1609938368191317
  6.3351209128086738  1.9496915622698432  3.2754794957108158
  6.8661489807674840  9.0871876157634173  3.4489279558586468
 12.7645362859522997  5.5350825087619215  3.6929650046161084
 10.9746436324842733  9.3470789996300354  1.0540783075849789
  4.5835101583155833  5.4609326391991040  0.7893440587001989
 10.7409036634874155  1.9033582862137643  0.8628225568511890
 -2.2237215576577163  7.0765869856341608  4.5760668583639754
  3.7426090112073194 10.6798848863343547  4.5788251010915690
 -2.3959487991564452 14.2978716966991808  4.6616282131481537
  6.6211628805585541  1.7580082956631840  0.6998971864440978
  6.7350177304357466  9.0113511129832862  0.8018699287531523
 13.1017434913583966  5.4739827280749500  1.0514715769629437
  1.8245178146202921 14.1518267679770009  4.6894424061235833
  1.5509294712892927  7.2369689635677226  4.5005661545459308
 -4.3639811031897509 10.7129251436053377  4.4901191222099692
 -0.3396435750403126  5.4718789417383666  0.0492560506319770
  4.3968162135193323 13.4659644710958553  0.3832130032394929
 -4.8332912454547943 13.3515939047629573  0.2930450018949177
  8.7188982110998783 10.9710492566825906  4.2907937426229870
  3.9268124785477383  2.7367698483596716  4.0166832166684729
 13.0824207952401252  2.9217196014785864  4.2881558879330646
  8.7323129008269511 10.5903905576371535  0.3910525168650353
  4.3134984093239437  2.8479905491284820  0.3384707726545116
 13.1568239004487992  2.8441044791875050  0.2402788330288476
 -0.3524404273736813  5.3585623567513307  4.3032961420184499
  4.1972802844211961 13.3135605600700284  4.0818549130611315
 -4.8501284982021042 13.2058699881396553  4.0261401264137922
 -1.9449831173277130  6.1316346306918463  2.1698874934254966
  4.4917376066911840 11.5393893167897943  2.1623192346896394
 -3.2876573642036528 14.3385658376046354  2.1671606481298262
 10.4267534493308123  9.9590651400897094  6.1052849738532995
  3.9228783375399927  4.7016197743052830  5.9630561219020803
 11.5940483658775975  1.6018899636948905  5.9873929927639669
  2.6295050079291311 14.3645808966782660  2.2303672970942494
  1.1429154085162263  6.2190635235119140  2.1360535475006674
 -5.1038605139495878 11.4595835706455897  2.0672491511824331
  5.6008532256321999  1.7331761423236998  5.8329849178184414
  7.0881367974944789  9.8109618796210203  5.9956333099481052
 13.5221954972487204  4.8003528739495884  6.1083943959555249
  6.5548734678349918  4.2441772285169819  1.7958131913794724
 11.7978808137564357  3.7616035796096319  2.2851824750936869
  8.8225413409293409  8.0092990000792259  1.8020789370161150
  1.7138852661224122 11.7539856765128263  5.9216087021611843
 -2.5370994501902260 11.9342141924578904  6.0776518699135371
 -0.3463308853589724  8.2923374447618698  6.0698377586883101
  8.6227068532160942  2.4704626651687933  2.1702707904677858
 11.5048840934657193  7.0744559150662623  2.2159210425782501
  6.3335744607414712  6.8553283202593418  2.2283696380007330
 -0.3159476540709467 13.3533473451654459  6.0010239892620820
 -2.8143109344837844  9.2460023943687979  5.9819374171976385
  2.2856387207406459  9.1840677135447617  6.2346189689685581
 -1.8922319242686270  5.7456634077134687  0.5508607948379400
  4.7437699883213469 11.9147037773290538  0.6189287062022957
 -3.7371366532699191 14.4580061981627086  0.6176671233403818
 10.1831428011697600 10.3779536117216544  4.5645149645438750
  3.7010910712168834  4.2970858513261136  4.3746622218109890
 12.0721369282333075  1.6901723783059168  4.4196569774755208
  3.1084795127891320 14.4190026192632921  0.6776468552605074
  1.1910193355267513  5.7635983144042315  0.5562283411149767
 -5.4595193597192564 11.8477764812542254  0.5232874417077372
  5.1429362686888052  1.6546553501314232  4.2791694065640788
  7.1886706857343716 10.3204077375492869  4.4551341296160913
 13.6711019161749103  4.4425345677116006  4.5199714826102397
 10.3712236068521424 10.4087599436344416  0.0176433587088084
  3.7819508111117792  4.3258409597645135  7.5487069977894325
 12.0980055278888745  1.6879680334897382  7.5330608412654900
 -1.8494430810468829  5.7440342526439006  3.7924237253836259
  4.6485020529839352 11.7917081158204429  3.7159848318058066
 -3.7392460597468702 14.3901520146836539  3.7298525259889947
  5.2973044957329218  1.6742302800104376  7.4170825485821634
  7.1981480745145507 10.2803345994552551  7.5755493313975011
 13.7454735159954531  4.3680905289410523  0.0550663294462669
  3.1814524736423433 14.5107555890661519  3.7730209402592441
  1.1584074280783760  5.8153256864860223  3.7396343223649615
 -5.3156835051130287 11.7148783739444138  3.6659525313530619
  7.0708973838941098  2.6444181712432426  2.0257129575607222
 11.9539957091809139  5.4547322775495495  2.2524186479588262
  7.2414476475115848  8.1380821013476101  2.1132517838162066
  1.2981041089684138 13.2691042027411488  6.0387875507511879
 -3.6056254253403339 10.6615288848449659  5.9086018479183160
  1.2492881647497893  7.9124164161173507  5.9994057062996689
 10.3908966904393854  8.2729948941502496  2.1852975397112542
 10.2796889523261044  2.8661213109967689  2.1886426995833768
  5.5220528115989582  5.4615488286125196  2.1281928631049079
 -1.9184474346635381  7.8460585156689477  6.0125853124856050
 -1.8989975373996995 13.4268238988192721  5.9073615024317672
  2.8848962949465253 10.6251282178432351  6.0162994059313295
  7.4481905389864016  4.6855748643225610  4.4413923287662840
 10.1341808760865870  4.6784389949742859  0.4274851240881123
  8.1675708846704040  3.1942117113436823  6.6926076670153236
 10.7171642208981162  6.7484096595923271  6.7105188536810783
 10.0366827972635733  4.5349024784467025  5.3873421411657265
  8.0320039098377602  5.9288638638856090  6.7876490073744629
  9.4279561409883161  5.1083670183205516  2.7663645907948102
  8.8381951622728732  7.0349702684876378  4.5387575124654758
