 O Si Au 
 1.0000000000000000
    13.7029250099999995    0.0000001400000000    0.0000007200000000
     0.0000001300000000   12.6471261899999998   -0.0000012000000000
     0.0000009800000000   -0.0000017600000000   18.5380665200000010
 O   Si  Au 
  96  48   8
Cartesian
 13.6980809041999887 12.4658917104804008  3.0482191908644451
  6.6914391435550344  6.0326492583115732  2.9696395352298710
 13.5188467281719369 12.4106469081930459 12.4072632871537429
  6.8128117869376625  6.1589166530461688 12.2600557078346100
 13.5029419363125047 12.5803663182258880 16.0289038807793354
  6.7203589201593124  6.0457818931992504 16.4464435049741233
  0.0272779483718880 12.4355508719638159  6.9410672915701772
  6.7789602122996273  6.2237311486592954  6.9550038564698911
  1.7372046180325182  0.1763475270523146  5.0252314828451805
  8.6508437940771543  6.4409992487257233  4.9402032581365782
 11.9922100496043811  0.3188624112210367  4.9665938791863251
  4.9137994925695780  6.3792778107840729  5.0374200253182702
  1.6156942649936028 11.8837496276007695 14.2603122690771364
  8.4671517787623909  5.9193264070402760 14.3195250771300753
 11.5969204646170194 11.9985984092949902 14.2569905757276967
  4.9490734999167660  6.0380539264009281 14.2953093462401686
  1.6351334907119417  1.8367031760921864  2.9174407361135759
  8.4706092647991262  7.9741095008504761  2.8705677532635749
 11.7725665760264739  1.4902513455480499  2.6434933552172479
  4.8761078540020266  8.0110433747800300  2.8478569463590655
  1.5533208965523315 10.3311829121004664 12.2861332753007133
  8.7705305668434868  4.3957043142624386 12.0654483609503203
 11.8403471823910564 10.4753157504249685 12.1540265348420924
  4.8279291006585403  4.5072668404071257 12.1726662023964494
 11.9118687273421351 10.4987796888233937 16.3885408167483781
  4.8355530632667669  4.0955864485307281 16.0974648595029279
  1.6024987260315497 10.5995337915808321 16.4728599195414027
  8.6008804836918848  4.1713055860976258 16.1420174000488856
 11.9477565225564195  1.8315396885455577  7.1689944519202493
  4.9305817196644988  8.1841067698767720  6.9149487437743886
  1.6757594665660456  1.7667196383595949  7.2615919313723554
  8.7915180084671896  8.1326326236492488  6.9430387568200613
  2.5992920761781817 11.8844312796300997  2.6727586741256131
  9.1363565147682788  5.3661778964377023  2.5519077558670196
 11.2647715027038906 11.5755494565375976  2.7827890718676489
  4.2341350988535700  5.3825003426692479  2.6700405841143269
  2.2793440826945290  0.3926785034452565 11.8932814829352420
  9.4050796053526469  6.8894964237000353 11.8914051885757193
 10.9513909104013010  0.4127106232268181 11.9452500693313066
  4.4142996134846006  7.1923718900259050 12.0040438582062432
 10.9593091145220427  0.2824686878746213 16.5665435092563591
  4.0715085752830191  6.5113524108604484 16.6312735916243746
  2.4551740920501359  0.5186968207820863 16.4454776012668518
  9.2917087046546882  6.7638118676033985 16.6330677706550780
 11.0741525428202330 11.9266900432400522  7.2064459039480377
  4.2649078838284176  5.7540075646649012  7.5786634419947481
  2.5075036866628579 11.7795760472931814  7.2818179094030846
  9.4037923694707448  5.5856002837457162  7.2803035579054125
  1.9392889268354356 10.2212573460965199  0.6905230157327876
  8.7546183782927258  4.1387493444623074  0.2720904994606604
 11.6390829308358388 10.5006849776053386  0.3819362482599564
  4.6175244428146991  4.1592423198801711  0.3371713141284808
  1.8879905178246086  2.0789300040246679 10.0138226008281528
  8.5477279016890417  7.8897121841498876  9.6271520710824170
 11.8094881311516424  2.0140961324878108  9.9942832646555395
  4.6482485635234285  7.8830339753700311  9.4209822430668115
 11.5987611448780772  1.8652405267873380  0.0381037597656748
  4.6909959947829396  8.1022474939026576  0.1535856904063876
  1.8498598233210131  1.8757280473035496  0.1357894026753968
  8.6594879126034883  8.1105148322250304  0.1761480227600152
 11.7163748984845810 10.7984690513257373  9.4436391919646567
  4.8985249134399318  3.9085388653352831  9.4601680275787370
  1.8297423262039587 10.7530055562625293  9.5564546759366031
  8.5616613948557596  4.0054826721607384  9.3974099965996967
 13.6258544963420025  9.1282585569846759 17.8970697115883901
  6.7217315728350187  3.0819096753882338 17.6030515529946214
 13.6341538099999848  3.3163835086630709  8.6605690856485893
  6.7743727186611391  9.3028990001736567  8.4110891609081122
 13.5003340859975403  3.1244130856873946  1.4323734127136947
  6.7264392379147973  9.2992146799324562  1.3181036434943885
 13.5898765276767275  9.3277380837579891 10.4632110282535535
  6.7201223617472383  2.9769877207834332 10.9901854716094842
  2.3409303366038920  8.2314871869679180 17.4790306130426032
  9.1155848688937855  1.8645915619615709 17.5179967351367694
 11.1078114106131363  8.3340722834383367 17.5546343044983715
  4.3343875448592444  1.9109766169344915 17.5398845600354605
  2.4062271205769670  4.0181819507719343  8.2477323614083744
  9.3120002785965799 10.2033397635675041  8.3493112875100639
 11.0179506608654947  3.8771037120105456  8.3900330650794999
  4.3874911906683174 10.4779600399725759  8.3885800036307820
 11.0502320759209951  3.8617111381286326  1.8333727262429105
  4.4617172484890313 10.3897084021627819  1.6438628534283910
  2.3071514755070575  3.9783538604373527  1.7184464392957677
  9.2660738869576562 10.1720340803002820  1.6718266875813030
 11.0408845883628857  8.4568837468698241 10.6034025096781725
  4.2054883227590283  2.0685972039445946 11.2952691671023704
  2.2702086342408387  8.2293308622565231 10.7022839318638852
  9.2761241608170888  2.0759823170885516 11.0325537009099239
  9.9439728944411829 12.4446993802433195  0.4725659866255236
  2.8709547223436371  6.2197937833132730  0.5271076072737504
  3.5303487060399243 12.4244334505493050  0.2902311614445516
 10.4310220570409431  6.1542269948362343  0.4217370844858676
  9.9379828684088949  0.1146923298138675  9.3898576590256031
  3.0849447535985011  5.8948964387868958  9.9596507344257699
  3.7793976727394512  0.1360124032019784  9.4910603461548799
 10.3532444682487856  6.0476898871006064  9.6665231156414677
  1.4973323642154055  0.2935726273441940  3.3947230481981139
  8.2095982877317173  6.4925831042692144  3.3293746451738695
 12.1808836209316116  0.1140544941228607  3.4037075443797602
  5.1490449225785628  6.4832011710581563  3.4430437915904757
  1.3334265328311696 11.9212123340048919 12.6707199479095269
  8.3821738213033932  5.8646145933439557 12.6241886775538585
 11.9802772477651001 11.9904278875951764 12.6743183687154257
  5.2710385749387738  5.9891564961525026 12.7106151929511242
 12.0285954321736970 11.9651600270431437 15.7720919478085317
  5.2331154811077063  5.6769846534920561 15.8399670933873438
  1.3509872743786682 12.0607707941150597 15.8421320860040069
  8.2118571857582126  5.7594052426009670 15.8808030803915283
 12.1935946234265344  0.2809595824065641  6.5729607363977616
  5.2120514163045035  6.6599200483630385  6.6333875582191544
  1.5468195531634454  0.2619364183852019  6.6451954234047905
  8.3751084138010423  6.5955844156440930  6.4969775926022617
  1.5080017694789769  9.5910019945679785 17.7787362886146241
  8.3128247807401561  3.2962290431491890 17.4677239160456246
 12.1070440704451574  9.6113718246926751 17.7002418500499630
  5.1334391010037717  3.3145140903592258 17.5612679431984553
  1.4819072797331507  2.7376028404822761  8.5603980596024449
  8.3589463434932956  8.9216257352714017  8.2891994537873153
 12.0922190070171442  2.7488696417830276  8.5548056813675331
  5.1664320269291899  9.0248822743441544  8.3396459897615891
 11.9984780170576126  2.5865707548277399  1.4700136312372927
  5.1537726253992791  8.8681806074674849  1.4590642788669370
  1.3868471117776666  2.6796729684793070  1.5043958021862462
  8.2601607775549351  8.9486727618035253  1.5238686951067968
 12.0640468002326173  9.7807930133634144 10.6843991434418033
  5.1284504792292802  3.3848286874997036 11.0028431411000209
  1.4600188264961884  9.6874415499373594 10.7669714071616358
  8.3194915890453895  3.3557362984257844 10.8380942167010605
 10.5636640044658634 11.2018678586855049  1.3291530937544405
  3.5472050592279243  4.9371216770309285  1.2551124672039904
  3.1152900259582488 11.1955984782378994  1.3020348485186726
  9.8480167541495796  4.8361357048854154  1.2404202778516440
 10.4808892662267539  1.1778305215407516 10.5391070386607115
  3.6489521238205604  7.3588847148847352 10.5620310077896296
  3.0313602767879484  1.1212022917262718 10.6848002834805715
  9.8983682534777575  7.3731067365535381 10.4411483106429497
  3.0361433869130146  1.0139818041500694 17.8599956458429467
  9.8842225768721974  7.3287549468339810 18.0352322270801153
 10.3765765495983118  0.9621276425854335 17.9380587222870140
  3.4687449351066206  7.2150024626957352 17.9518960619281494
  3.1236860677899312 11.4185141191408466  8.7629624042972196
  9.8540040910146249  4.8488891222411121  8.6512550316168149
 10.4655032147429150 11.3649492008384847  8.6302828869703188
  3.6789082432048552  4.9161814960512498  8.7852146624380687
  6.6501469451362372  9.2026845463922200 11.2413999634317285
  5.0665659443173654 12.2982967667944223 13.1273202872777244
  4.2764365455431719 10.3763775216803378 11.4822724262464781
  7.5866601929097603 11.6126903809989024 13.2281857339188935
  5.6774111078869174  9.6805119434809992 13.8121134081543442
  6.3873825353300617 11.9588400444989560 10.7541279072987237
  8.3857610538061653  9.0089450432249816 13.5411234162690146
  9.0072254600688080 10.6082011841628141 11.2664663859466927
