Si  O 
 1.0000000000000000
    13.8765999999999998    0.0000000000000000    0.0000000000000000
     0.0000000000000000    9.9933999999999994    0.0000000000000000
     0.0000000000000000    0.0000000000000000   13.8970000000000002
 Si  O  
  32  64
Cartesian
  4.2418812348563089  1.4589457379589557 11.2907176390661768
 11.5729552926271690  8.7083360774296921 11.3099799357900590
  4.1559461845663668  8.3453488461219099 11.3789262093953898
 11.3926616015635940  1.6274026979074929 11.4146891620533122
  4.0183650681568830  6.2717607836382614  4.4790442162084778
 11.8477338631633771  3.5771278341496542  4.3566372677483676
  4.0776417482374114  3.4805387527119964  4.6069697677633537
 11.2340583224963968  6.8543272117911416  4.3552379845885483
  6.6975969614880819  3.1550375242333728  6.6250831112551900
  8.9599680378074851  6.6860322094817306  6.2786757101011110
  6.2347233168624907  6.0751604884435046  6.7980070803491923
  9.5003304535073774  3.6144822808369463  6.2119254865785072
  6.2385271748145161  8.3216239987124840 13.5469360107875811
  9.2994348244018799  1.4851532913679675 13.9015381380816230
  6.1752160896256303  1.5833274523706549 13.5843333437916058
  9.2679864487455674  8.3798045988953245 13.4399544204031276
 11.4357614456637666  3.2364778092232243  1.3667454457300623
  4.5901215242012299  6.3104641261937822  1.3365091908399451
 11.1550417197153404  6.5989608698846958  1.2506790630135425
  4.4979157836999981  3.2680663347417687  1.4223511662957806
 10.5639576997076325  8.6571981705355583  8.2049244830483055
  4.8189412080698597  0.9962702050189456  8.1433043842061004
 10.5602229808326644  1.6245492587683390  8.3551970726774538
  4.9039244558391415  8.0907807927208566  8.2915993922513529
 13.2479313473242506  3.4581421644804080 12.7278284673914133
  2.4031843821668222  6.5804676425804871 13.0992935200362268
 13.2632098265833811  6.6685309826825083 12.8462865595810101
  2.4596359951274649  3.3762916392127775 13.0481860698318837
 12.9853785628797294  8.7119923136806179  6.1862164679747895
  2.4941517730887646  1.6042973436003516  6.3205347282882762
 13.2268849934332788  1.8002253963244563  6.4501279941067544
  2.6396411442465477  8.4285088545389382  5.9136225955464035
  5.4951602642156754  2.0026342203227694 12.1849961828903748
  3.0112606539014051  2.4776225750367233 11.6991757352876675
  3.7948468475825106  9.9137138013228796 11.7338121007091907
  4.7337393193267152  1.3608264676671069  9.7281563199475709
 10.2174046278245427  8.4490108219158824 12.1493302045329123
 12.1885431804428723 10.1836405054728498 11.5720641672370093
 12.8375121747985848  7.6800866870272797 11.6016011007416466
 11.1257832046578642  8.4346058619367561  9.7486363699067677
  5.4368565175548147  7.8674503115206340 12.1994344548815441
  2.8394856687404393  7.4607457954640557 11.7716605242763190
  4.4905957947351354  8.1863577538831560  9.8251226042958297
 10.2814792800277868  1.7909186120396432 12.5910294955531814
 12.5326349823266856  2.7606510594454381 11.4452753616415794
 10.6328207220846735  1.7544344249238570  9.9914806773381084
  3.2771292502313534  4.8712650177312868  4.7755432080750806
  5.2239676292190875  6.2859096933145091  5.5584583906333984
  2.8924345873854769  7.3952972012459295  4.6811384749508465
  4.5356100453176671  6.4464168472913244  2.9621369156380828
 11.8733297148135204  5.2603814617337070  4.5456584640373467
 10.5120744116176663  2.9754180761866103  5.1855946526820595
 12.0886438285411177  2.9290228251502817  2.9414021206246339
 13.0627548622519161  2.8888722122222585  5.2565201495640093
  5.4470418554528690  3.2837003852785402  5.4329763231762662
  4.2690630965911458  3.1928937477971702  2.9978551347887801
  2.9067535776480176  2.3757018880655241  5.0164664796479466
  9.7011637115820317  6.9957367340942334  4.8267471589756319
 12.2409107597545024  7.9290950501307131  4.9694932088382666
 11.3067402468519678  7.1017730413445816  2.7611832762785360
  8.0017935449692974  3.1904248249911435  5.6622962595004047
  6.5758026671901195  4.5735167439585123  7.3495932660718575
  6.2583773637978766  1.8271879870140271  7.4534246277787144
  7.4103847356268266  7.0268534917079650  6.0854100066093348
  9.4720009938900258  5.1648210719981131  6.6902924102453705
  9.7448035981809582  7.5307287695407430  7.4569450158757933
  5.9985299074413776  6.9026890701352928  8.1275816204991056
  9.4701463150740732  2.7113304549076598  7.7353505689189177
  7.7731555270174049  8.0849403154121564 13.0155081580808094
  5.9805706599902679 -0.0507547750976890 13.9593139620489097
  5.8201201418217616  7.3402440562320344  0.9095310718327726
 10.0305914406007552  2.3598042549016331  1.2226453172533909
  7.8173900836759804  1.9274300138229978 13.3893504862730346
  9.3280290106764561 -0.1229575944414053 14.2271754358444404
  5.8087558381018756  2.4526587107043625  0.9748098895205585
  9.7894108937793902  7.2813360597461596  0.6361867954619554
 12.4357949001204098  2.9476088161459040 14.0723614460340016
 11.0145338949651990  4.8883126500961698  1.2781496939809966
  3.2788478199437598  6.8137551849969933 14.4430545087506648
  4.9136786795649927  4.8183076230245128  0.9176286257092720
 12.3724798995002079  6.9895337206816235 14.1753477514224286
  3.1545079123088580  2.8543275586852297 14.4368590580143543
 12.0780409677025098  8.6473578604103487  7.5015224050699301
  9.8567368515296518  0.1108318155316083  8.0738582950767963
  3.5667935200711680  1.8022568638088665  7.5347571462425948
  5.3400818519505870 -0.4423355739499601  7.7101521430390632
 12.0709474877537417  1.9254340140097912  7.6201121048123390
  3.4410075706312515  7.8412488113668175  7.3664329432003663
 14.7638384987089548  2.9097758683687287 13.0484270729085967
 13.0347182141632594  5.0984484179025396 12.3137801140934844
  0.8826750057486564  6.9291835062350415 13.3790867322052200
  2.4985287525459476  4.9463340336174113 12.7649563167249891
  0.8453526391796541  8.0284123687027993  6.2240549285937989
 13.2351971719093378 10.2703546667252787  5.7871543714757703
  0.9876352799225163  2.0329545500790194  6.9326097514870293
  2.6607133232914331 10.0154032920562752  5.8505246736374810
