 C  O  H Al  N 
 1.0000000000000000
    13.8351953600000002    0.0002713800000000    0.0004054500000000
    -3.4584020099999999   15.9703069499999994    0.0036034200000000
     0.0003653600000000    0.0039509800000000   16.9322510299999998
 C   O   H   Al  N  
  96  20  56   4   8
Cartesian
  2.9381577594483512 11.9742024123525201 12.4805440592290644
  0.5218073066406261  4.0002416579297098  4.4560945927815236
  2.9375428544303839 11.9719377684980337  4.4582604886256352
  0.5222978153783442  4.0023834865352974 12.4776910205404299
  2.9460520924653499  3.9990608166695401 12.4778295054951265
  0.5137995013337637 11.9745406246623123  4.4586814478761907
  0.5146018050545161 11.9761836684673195 12.4801230082981558
  2.9453552442810915  3.9976219461024485  4.4560026175144305
  2.9410055043239947 12.9196267746876519 13.5039720528858158
  0.5185080842362644  3.0548353228317038  3.4326218889376112
  2.9406465241260604 12.9171917745757039  3.4347565241753855
  0.5186948345193172  3.0571607754033190 13.5012069995175956
  2.9469723382061019  3.0534013317341651 13.5010336236393282
  0.5123937414368028 12.9201472246213598  3.4354193949423837
  2.9465451575097714  3.0518042012523949  3.4327817323284648
  0.5129957980948544 12.9219863945441951 13.5033504813856187
  1.7297887302185952  9.1214663330478061 11.3586379808054563
  1.7319046440446433  6.8525469602033668  5.5776152439035309
  1.7278714225704217  9.1200650987997989  5.5788588974583107
  1.7338467854396198  6.8539548960558179 11.3573667299652925
  1.7313013375156507  8.6770583073290517 12.7268840770547431
  1.7309199547884480  7.2970139281455886  4.2093742564711603
  1.7283749569905469  8.6769661474453397  4.2101013513393557
  1.7337580993296895  7.2970516200507234 12.7261258116255895
  1.7260616159882356 10.8605946469783508  9.5634889559779701
  1.7335347947513160  5.1134599837804640  7.3728300833298697
  1.7257647863060595 10.8595517719758661  7.3746823022712551
  1.7338740622496427  5.1144557418734875  9.5616147154248541
  1.7268921265882158 12.2658220297295681  9.1517825399288668
  1.7315913103871101  3.7082060595652409  7.7844987016928133
  1.7267124176985771 12.2652430010721414  7.7852460223559712
  1.7317839547079532  3.7087713524922212  9.1510289515258076
  1.7266018545661741 10.4468538220837122 10.9061956055000362
  1.7339717368177092  5.5272321299748217  6.0301243163186635
  1.7255599933805681 10.4451391780360225  6.0322168457298355
  1.7350490827737961  5.5288729843172444 10.9040719046708521
  1.7260742364459487 11.4919745273967600 11.9675768996836869
  1.7341163624401414  4.4821160505334756  4.9687514781110451
  1.7252589656439099 11.4902055418136246  4.9709966594405728
  1.7348639406528636  4.4837842466706936 11.9652671811168911
  1.7272706566775986 13.3933605615916491 14.0246363723095779
  1.7320253614033252  2.5807913402021327  2.9117570133390767
  1.7269027406310966 13.3909076455193610  2.9142865811229730
  1.7321805879580088  2.5830731693651501 14.0219352349117461
  1.7278708944687113 14.3775765359601184 15.1470370517539550
  1.7308037513732384  1.5966777067585314  1.7892835307531532
  1.7276481956840022 14.3745207548947000  1.7918329421754955
  1.7308500126989621  1.5995899046092616 15.1444615261885307
  9.8582041788557326 11.9841374900611104 12.4797120289005967
  7.4408647503021470  3.9971815183698332  4.4541297991474149
  9.8568935891533229 11.9809702011345252  4.4609110230429136
  7.4403149540826385  3.9998653576200165 12.4798180003959125
  9.8631355819805524  3.9910189200704966 12.4775768727532448
  7.4339575562535458 11.9784351450068769  4.4561161890036329
  7.4354284919552383 11.9820558404524604 12.4838338276439487
  9.8635638636013905  3.9872754432469000  4.4559914449768394
  9.8614768547898013 12.9305109156250708 13.5028639208481422
  7.4352807667423493  3.0505085249442421  3.4313279289149716
  9.8602048499927797 12.9271325120054108  3.4376880120884850
  7.4353533330528547  3.0530905620856856 13.5024060308537610
  9.8627069411132844  3.0445573298726698 13.5005811340742774
  7.4328765178611089 12.9252704985723046  3.4334814318492812
  9.8624269957114024  3.0408972671609646  3.4328340268663617
  7.4343082880448970 12.9289500173952216 13.5064882421697838
  8.6425129486734331  9.1229213273091734 11.3646899455321311
  8.6473901131225226  6.8522105228377264  5.5723353042295427
  8.6425194048480591  9.1202012110383741  5.5742747890226951
  8.6459560381023532  6.8549821856176569 11.3627084388854982
  8.6413312777005551  8.6780839471299398 12.7328589908198531
  8.6442717046597508  7.2971715887586006  4.2041648070569009
  8.6412697811430679  8.6774258928765367  4.2052947768435365
  8.6434144391321404  7.2978179551588953 12.7316798878758171
  8.6523225071459162 10.8567581122116898  9.5647025459735229
  8.6595079833282949  5.1180910133009299  7.3723232807010746
  8.6517296009569691 10.8550064062772318  7.3749546246977440
  8.6589157355018731  5.1198882361710734  9.5621766657275398
  8.6615122395481698 12.2613604970768524  9.1519630239723320
  8.6650654277486492  3.7134156330834642  7.7851463552261215
  8.6610274948433492 12.2603469783123096  7.7857254202063366
  8.6647308892694248  3.7144615739314326  9.1514623388253593
  8.6462199730023368 10.4476814814535039 10.9095352495541924
  8.6548945065348430  5.5273672240808072  6.0274938651996655
  8.6453293611332551 10.4446246294265226  6.0305052926477947
  8.6536287671275627  5.5304796203551811 10.9065650864977854
  8.6463605195634496 11.4971309681181282 11.9688564046915822
  8.6537955978974281  4.4780748454938148  4.9680800990186809
  8.6449648386800941 11.4939191251985235  4.9712387124122648
  8.6530017955688141  4.4812697822971232 11.9659781212834950
  8.6484318327290595 13.4012795247166956 14.0270703073184411
  8.6471821541992568  2.5740559899159376  2.9096559641661721
  8.6471476473271309 13.3976069483874838  2.9133633877672414
  8.6476670062844558  2.5772939007330664 14.0236360459799450
  8.6489535095271268 14.3857762147395185 15.1486066582129197
  8.6448262033299059  1.5892731098424191  1.7882696821940669
  8.6480784265918746 14.3818678792560739  1.7918491364433173
  8.6455937776737493  1.5928326452929917 15.1450059545870861
  2.8719978727698079 14.7450480309947931 15.5836246970076946
  0.5864056904186725  1.2298357840644063  1.3528052366162893
  2.8718074119670529 14.7415992266012310  1.3551242898039999
  0.5865043573623521  1.2333302784443718 15.5813764285348064
  0.5844340400620713 14.7451244941408710  1.3555604647923951
  2.8738388066145317  1.2282494188300710 15.5806107286012594
  0.5847201173518820 14.7483289702752352 15.5834475320203332
  2.8737328735542396  1.2254161059968578  1.3527591411560789
  5.1882918278018053  0.8063227947530952 16.9320414162586736
 -1.7304643443563141 15.1679673680499008  0.0042935421708512
  9.7921550493793710 14.7571316863855451 15.5838246810229144
  7.5011610057656766  1.2189266783523014  1.3532274673067552
  9.7914824410478776 14.7535781277208216  1.3574668423190925
  7.5019025651438076  1.2219554046793886 15.5793830152152939
  7.5043444506211294 14.7491556353013724  1.3547025091344176
  9.7889840965734596  1.2245366689140371 15.5821359136592026
  7.5050645855653038 14.7536186568608940 15.5849490514420346
  9.7882874152882966  1.2202291899406945  1.3518494480109740
 12.1046283451674128  0.8110010979281710  0.0010494265487735
  5.1882704045929877 15.1636946442403868 16.9359080808222409
  3.8742713960629960 11.5914622790476312 12.0717254845838191
 -0.4141045682049666  4.3832895701141972  4.8650238123296292
  3.8735038468091729 11.5889232158380864  4.8671352530683318
 -0.4134363436603846  4.3857464810315721 12.0686612441640069
  3.8827020439718116  4.3803770905362391 12.0690567963545661
 -0.4226179524833484 11.5929225664377196  4.8676733664607870
 -0.4218036194898399 11.5944095809486765 12.0712316732964897
  3.8819640360017007  4.3791557974606228  4.8646979966118664
  3.8743674540606534 13.3005307730592790 13.9150730941523175
 -0.4149747063176931  2.6742121098045444  3.0216431601120148
  3.8739330014797906 13.2979672635279602  3.0234085344355175
 -0.4147824233882282  2.6767366099745162 13.9124651549185536
  3.8792599021773428  2.6704497624396413 13.9125278834705028
 -0.4201040181810552 13.3027399838708060  3.0241324657800637
 -0.4197450224290568 13.3042472195624697 13.9144631942358199
  3.8791267942186378  2.6692344820809084  3.0215661643993155
  1.7302548306485852  9.3416040293426210 13.5836038265746684
  1.7317063577990282  6.6323909015713634  3.3526422901768873
  1.7269923712353556  9.3423938114715916  3.3539824747756115
  1.7349822730155848  6.6316891044604542 13.5822121887404652
  1.7274484928149727 13.1215106404024411  9.8202837613107032
  1.7306395352875379  2.8525704594618206  7.1159832579322293
  1.7271339747803474 13.1204506915843577  7.1161687923327461
  1.7309854929790640  2.8535772329218814  9.8201212433560450
  5.1893177403786348  1.7689207793486343  0.0012796532390658
 -1.7325381285420904 14.2014197594902285  0.0066197687448152
 10.7956741798163343 11.6057061156477292 12.0705737967174223
  6.5043499314202489  4.3803699579233353  4.8610053210128248
 10.7942095196704315 11.6025479320971208  4.8703674993502801
  6.5036504802466428  4.3826593392673967 12.0729692772201442
 10.8018920238812921  4.3669944990899205 12.0691311334201252
  6.4958506712488386 11.5977519650213239  4.8617103110062487
  6.4972847768219486 11.6016373812235347 12.0780960491205533
 10.8026247829850952  4.3627666773978921  4.8641956441764833
 10.7943516491297373 13.3140086673181930 13.9133424427295935
  6.5013877354186063  2.6709041792554786  3.0195170350083060
 10.7930282153643766 13.3107419908594906  3.0272649977344854
  6.5018154984703127  2.6728748254878028 13.9144199191526816
 10.7942755816512452  2.6586503438735840 13.9117114904846897
  6.5006251483299664 13.3074346784986712  3.0204012851997439
  6.5019179823979956 13.3111931838367337 13.9192340767164868
 10.7938624701452479  2.6546637808315303  3.0216990195640485
  8.6410659792834235  9.3433919501054934 13.5888930146106031
  8.6458265123976688  6.6318632910768791  3.3481282811443682
  8.6401945650443448  9.3440859451436751  3.3503238630846339
  8.6448278901108733  6.6311305960764013 13.5866331956707125
  8.6675155888854576 13.1147925415471622  9.8229483505415338
  8.6685595941127307  2.8599093725985667  7.1142454430115407
  8.6664487173127149 13.1128785404110975  7.1136066837584462
  8.6679585634570415  2.8618753877276011  9.8235154495713388
 12.1028250013654297  1.7816026986244429 16.9327134102921342
  5.1892985188394265 14.1931050153029936  0.0070211354803056
  8.6457568287128019  7.9914954172494417  9.5576284812222223
  8.6472587745185603  7.9837749517661427  7.3793740333361244
  1.7308729517073860  7.9891829545933950  9.5516764932221445
  1.7301558162344781  7.9849144871654527  7.3845667415061378
 -0.0003798537337661 15.9699031882680984  0.0037632359253872
 -0.0004121745341962  0.0066684543790906  0.0008251195005470
  6.9171331593675056 15.9700849075566609  0.0041214071782622
  3.4583207915347574 15.9684942045015852 16.9356510893492782
  1.7316433963276747  7.9881137850184212 10.5709215288339529
  1.7299967127702647  7.9859295270674568  6.3653127371578915
  1.7254667251253721 10.0238437394538416  8.4694233867645963
  1.7346609225398124  5.9502002045769213  8.4669085341400887
  8.6440571488111768  7.9896000214307978 10.5767433824322037
  8.6452170001484205  7.9855770064164933  6.3602556143941635
  8.6476421657592173 10.0193422283422073  8.4704245416983035
  8.6564955752900890  5.9554618779380863  8.4666371148191981
