Li32 Fe16 C1 O49
1.0
8.814392 0.000000 0.013618
2.981919 9.616867 6.808588
0.000000 0.000000 35.589053
Li Fe C O
32 16 1 49
direct
0.247733 0.499723 0.466978 Li
0.247733 0.999723 0.395550 Li
0.747734 0.999723 0.466978 Li
0.747733 0.499723 0.395550 Li
0.003816 0.249997 0.464196 Li
0.003816 0.749997 0.392767 Li
0.503816 0.749997 0.464196 Li
0.503816 0.249997 0.392767 Li
0.087473 0.499908 0.392733 Li
0.087473 0.999908 0.464161 Li
0.587473 0.999908 0.392733 Li
0.587473 0.499908 0.464161 Li
0.424600 0.000123 0.462613 Li
0.424600 0.500123 0.391184 Li
0.924601 0.500123 0.462613 Li
0.924601 0.000123 0.391184 Li
0.247733 0.499723 0.609836 Li
0.247733 0.999723 0.538407 Li
0.747734 0.999723 0.609836 Li
0.747733 0.499723 0.538407 Li
0.003816 0.249997 0.607053 Li
0.003816 0.749997 0.535625 Li
0.503816 0.749997 0.607053 Li
0.503816 0.249997 0.535625 Li
0.087473 0.499908 0.535590 Li
0.087473 0.999908 0.607018 Li
0.587473 0.999908 0.535590 Li
0.587473 0.499908 0.607018 Li
0.424600 0.000123 0.605470 Li
0.424600 0.500123 0.534041 Li
0.924601 0.500123 0.605470 Li
0.924601 0.000123 0.534041 Li
0.170196 0.249805 0.392936 Fe
0.170196 0.749805 0.464364 Fe
0.670196 0.749805 0.392936 Fe
0.670196 0.249805 0.464364 Fe
0.336864 0.249885 0.464333 Fe
0.336863 0.749885 0.392905 Fe
0.836863 0.749885 0.464333 Fe
0.836863 0.249885 0.392905 Fe
0.170196 0.249805 0.535793 Fe
0.170196 0.749805 0.607221 Fe
0.670196 0.749805 0.535793 Fe
0.670196 0.249805 0.607221 Fe
0.336864 0.249885 0.607191 Fe
0.336863 0.749885 0.535762 Fe
0.836863 0.749885 0.607191 Fe
0.836863 0.249885 0.535762 Fe
0.912888 0.204575 0.610892 C
0.359777 0.134018 0.391059 O
0.359777 0.634019 0.462488 O
0.859777 0.634019 0.391059 O
0.859777 0.134018 0.462488 O
0.139791 0.365753 0.469378 O
0.139791 0.865753 0.397950 O
0.639791 0.865753 0.469378 O
0.639791 0.365753 0.397950 O
0.216225 0.135484 0.458582 O
0.216225 0.635483 0.387153 O
0.716225 0.635484 0.458582 O
0.716225 0.135483 0.387153 O
0.474460 0.364309 0.462797 O
0.474460 0.864308 0.391368 O
0.974460 0.864308 0.462797 O
0.974460 0.364309 0.391368 O
0.283360 0.361145 0.395086 O
0.283360 0.861145 0.466515 O
0.783360 0.861145 0.395086 O
0.783360 0.361145 0.466515 O
0.050311 0.138504 0.393594 O
0.050311 0.638504 0.465023 O
0.550311 0.638504 0.393594 O
0.550311 0.138504 0.465023 O
0.359777 0.134018 0.533916 O
0.359777 0.634019 0.605345 O
0.859777 0.634019 0.533916 O
0.859777 0.134018 0.605345 O
0.139791 0.365753 0.612236 O
0.139791 0.865753 0.540807 O
0.639791 0.865753 0.612236 O
0.639791 0.365753 0.540807 O
0.216225 0.135484 0.601439 O
0.216225 0.635483 0.530010 O
0.716225 0.635484 0.601439 O
0.716225 0.135483 0.530010 O
0.474460 0.364309 0.605654 O
0.474460 0.864308 0.534225 O
0.974460 0.864308 0.605654 O
0.974460 0.364309 0.534225 O
0.283360 0.361145 0.537943 O
0.283360 0.861145 0.609372 O
0.783360 0.861145 0.537943 O
0.783360 0.361145 0.609372 O
0.050311 0.138504 0.536451 O
0.050311 0.638504 0.607880 O
0.550311 0.638504 0.536451 O
0.550311 0.138504 0.607880 O
0.965999 0.275132 0.616439 O
