 O Si Al Cu 
 1.0000000000000000
    20.0899999999999999    0.0000000000000000    0.0000000000000000
     0.0000000000000000   19.7379999999999995    0.0000000000000000
     0.0000000000000000    0.0000000000000000   13.1419999999999995
 O   Si  Al  Cu 
 193  94   2   2
Cartesian
 10.2050457796000007  1.1775278275800001  9.5449872887999998
 19.9177877163999995 11.4979354928199999  2.6973639592000000
 10.2033861447000014  8.6942183203599992  9.5448843869399997
 19.9182785150999990 18.1096191449800017  2.6979357676199998
  9.8812616783999996 18.1087609367400013  4.0588312649199993
 20.0109267644999989  9.0019690713799996 10.4284052765399995
  9.8808329577999991 11.4988548888599986  4.0585640880599998
 20.0115525679999990  0.8675563541799999 10.4289986378399995
  7.7089464521999993  1.6975155685800001 10.3599353251200004
  2.0493091786999997 11.0966323458199998  4.1341932753999995
  7.7082877010999997  8.1709562425400009 10.3594264668799987
  2.0505471245000000 18.5095887927000007  4.1340919505799993
 11.9995699621000007 18.5187626203399986  2.5618565343599999
 17.7895977643999998  8.3361392221799999  9.1917333514599999
 11.9986295491999986 11.0878749899800013  2.5614106262999998
 17.7905526420999998  1.5326331986799999  9.1913998074999999
  8.6536728760999999  2.7630470234600000  8.1199910293999995
  2.1884726087000002 12.4292365075199989  1.8797883113999998
  8.6540847211000003  7.1062340456599991  8.1198115096799999
  2.1887138896000002 17.1790654109599998  1.8781968151999999
 12.2396364216000002 17.0399865284599983  4.7054731241600001
 18.4078387857000010  7.1283863978199999 11.4557000403999982
 12.2394915726999987 12.5661497366599999  4.7052699488399998
 18.4074570756999982  2.7406400510999998 11.4563177143999990
  8.1318182505000003  0.0976654004200000  8.3203688118599999
  1.6757095117000000  9.7940682358399993  1.8810088089400001
  8.1289275003999997  9.7705833712999990  8.3190016496000005
  1.6757848491999998  0.0763629665400000  1.8823449560800001
 11.8259670487000008 19.6779333183999974  4.9706136312599991
 17.6377975235000015  9.6887656110800009 11.4769208220599985
 11.8245024877000002  9.9285108595199993  4.9700046309800001
 17.6387917775999981  0.1791239290400000 11.4764411390599985
  6.4455444123000003  0.7199729596200000 12.8207544550199994
  3.4496241668000001 10.4763540503999995  6.2492936964999997
  6.4450172507000003  9.1483794365999991 12.8205861060000004
  3.4509728085000000 19.1306277906400020  6.2489688262599996
 13.3323510088999999 18.9207068575800008  0.3369548346800000
 16.6701134529999990  9.1235969959399998  6.8453835385400001
 13.3315220955000004 10.6873520861199989  0.3364499190400000
 16.6713951949999988  0.7453885953200000  6.8454580536799998
  6.3467685119999997 18.8042950942800005 10.4293730534199991
  3.6374110219999998  8.9654879181200009  4.0315127266799999
  6.3463371796999990 10.8026879310399995 10.4295262891399982
  3.6383960346999999  0.9030016572000000  4.0305929181000000
 13.3969234833000002  0.9741107629000000  2.3359483141799999
 17.0653773724000004 10.8102791658400008  8.8459995293600002
 13.3965743191000008  8.8952579429400007  2.3349518877400000
 17.0668198344000004 18.7965011502199992  8.8454022254599991
  5.1500897818999993  1.7756060048800000 10.5346469129999996
  4.7268334610000000 11.3692172838999994  4.0946743614600001
  5.1492582568000005  8.0923230112399995 10.5349465505999991
  4.7276467041999997 18.2373265709200005  4.0944560728399999
 14.6826437051000003 18.4075745187399988  2.5391178516999999
 15.1873428769999990  8.8523453597599993  8.9613702561200004
 14.6820420095999999 11.1995539756400007  2.5389688214199997
 15.1883706814000004  1.0161270435000000  8.9612306880800006
  5.5134756928999993  2.4921627114600002  1.4353079982799999
  3.9107141766000000 12.1773918650800006  8.1849635003599985
  5.5112264165000004  7.3771809271199995  1.4349610494800000
  3.9129678727999999 17.4285643894799982  8.1832250765999994
 14.0590949058000003 17.0738336456199988 11.7431527722600002
 15.7764343128000011  7.2676257502599997  5.2032121807999996
 14.0591290588000000 12.5327958721200012 11.7423099757999996
 15.7768588144999988  2.6021288334800001  5.2031159813599999
  3.8801297632999998  0.6447812460000000  0.4275622222600000
  5.9200263752000000 10.7276108951999998  7.1640875521400007
  3.8788966391000002  9.2242380972399989  0.4260695539000000
  5.9215385495000001 18.8817012141199996  7.1647974829800001
 15.9221251846999987 18.5913660900199993 12.9634609360400006
 14.0798237678000007  9.1360491079999999  6.1545427677399998
 15.9218981677000002 11.0155711431399990 12.9632568407799997
 14.0810528740000009  0.7326305442600000  6.1551324492799999
  5.7966914543999994 19.7014665410399985  2.1457256179599997
  4.0411655781000002  9.5353910873200007  8.6078403367799989
  5.7946450869999993  9.9056382677400006  2.1453763036000000
  4.0397900157999995  0.3332581684200000  8.6086906241799994
 14.2922586422000002 19.6439081644799991 11.1487561454999984
 15.9569630527999990  9.7425246200199993  4.3666205846799997
 14.2916659872000000  9.9629443926600008 11.1491163677199996
 15.9577787068000010  0.1263460960800000  4.3665590801200000
  2.2740696698999998  2.5825400527600002  1.3360130915999999
  7.8492503914999991 12.4106186390200008  7.8838214041999999
  2.2733799802000001  7.2866932503999999  1.3363279739200000
  7.8498932715000000 17.1960100892000014  7.8829289309799995
 17.8751112511999999 17.2297567399400009 11.8385480532799985
 12.3536994056000005  7.3350097032199990  5.2282522904999995
 17.8747357690999991 12.3766219078200006 11.8380122539399988
 12.3556087591999990  2.5337431770200003  5.2273061979200000
  1.4167562423000000  0.9256105493000000 12.5950547983799996
  8.2354057057999999 10.6599829805599988  5.9202654591199995
  1.4156504886999999  8.9426903307399996 12.5944665624599992
  8.2364369254999996 18.9485405956599990  5.9205208081800000
 18.4470584837000011 18.9419552093400014  0.6351089657200000
 11.7090986971000000  8.7947611264199992  7.3446328738199993
 18.4465451842000014 10.6649687993600004  0.6348525653000000
 11.7105289041999985  1.0755155274199999  7.3445544160800003
  2.4593784236000000  1.6596081474400000 10.2810303628599993
  7.3189993512999996 11.5304575980399999  3.5663436200599996
  2.4590533674000001  8.2100260345000002 10.2800755965599997
  7.3200747690000005 18.0758979562600004  3.5674266522800000
 17.3013828393000004 18.1354769118799979  2.8924070095999999
 12.7648322150999984  8.2692716152999992  9.7631929827799997
 17.3011057981999983 11.4712428085200013  2.8919735864400002
 12.7664412232000011  1.6000550486000000  9.7627453662599990
  1.8808933024000001 18.8466940946999983 10.6653878658599996
  8.5682724960000005  9.1767137303599995  3.7562260698999999
  1.8806196765999998 10.7609886427199992 10.6658751712199997
  8.5675478497000004  0.6925367448600001  3.7560444474599999
 18.6296639269999993  0.7033586955000000  2.8300157588599997
 11.9229651848999989 10.7056959911800007  9.2129156270599992
 18.6297438851999999  9.1658191438800003  2.8299098343400000
 11.9221521425999999 18.9018552911600004  9.2123477612399984
  3.9469756221000001  3.0529652809999996  8.6373567430999998
  5.5521069547999993 12.6010950761399982  1.9391070939600001
  3.9460380217999997  6.8153198086399991  8.6378588989199994
  5.5530768999999998 17.0064473240999980  1.9386463354400001
 15.5676554166000010 17.2279224876000008  4.6572677424800002
 14.8369947732999989  7.3395719445399994 11.1149965816399998
 15.5677279414999994 12.3793477256199989  4.6563432027800005
 14.8389647986999993  2.5290678369599999 11.1147537174800011
 10.0443659596000003 17.0171238056800007  9.3985051111799987
  0.2018078671000000  7.1206196922000000  3.0569606199999999
 10.0444764545999998 12.5892052996999997  9.3986459934199988
  0.2025367323000000  2.7482802361400003  3.0573136141199999
 10.1816791006000003  2.7734530944399998  3.6959801192399997
 20.0274726875999995 12.5708154050999994 10.2893656763599992
 10.1797990784000003  7.0939958935199998  3.6969885048999998
 20.0272902703999982 17.0364832308399983 10.2893895947999994
  7.7364345946999995 16.4969248680800007 10.4651545139800000
  2.6404066009999996  6.5107427306399996  3.8657409842999995
  7.7366401154000002 13.1090927716599985 10.4662384661399983
  2.6413042222000001  3.3580916675400001  3.8654985143999996
 12.5686063544999982  3.4184473134600002  2.7069235814199999
 17.6695282722000009 13.3246317316600003  9.3677508598799992
 12.5674897523000002  6.4513206921199995  2.7078065923999999
 17.6692859867999985 16.2818458034799995  9.3680299959600006
  8.7295955978000013 14.8028770687199991  8.6342435347199995
  1.4091041622000002  4.9343896645800003  2.1251445888600000
 11.4658965903999999  4.9340495788399998  4.5758621204599992
 18.8345262777000002 14.8035586218600006 11.2230983367799997
  6.3258913858000003 17.1977861144399995 12.5687877515599986
  3.7935683820999997  7.3399570329200001  6.1046276118599998
  6.3254256996000002 12.4089075517999987 12.5692219632400004
  3.7940131746999999  2.5287157110399998  6.1039029619799994
 13.7982782889000006  2.7884334469200001  0.4130836808600000
 16.5327496851999989 12.7224391682600011  7.0819999917399992
 13.7971381813999994  7.0794932006399991  0.4133277277999999
 16.5329172357999994 16.8835869588199969  7.0821458679399996
  5.1147022513999998 16.4325430649200008 10.3504394415999990
  5.2941507520999993  6.8456843530799993  4.0395924282799998
  5.1151367981000000 13.1745866137400007 10.3501124686399990
  5.2949027207999997  3.0230815542399996  4.0401447865400000
 15.2070696498000011  2.8683832028200000  2.6112299769999998
 15.1127810518999990 12.4891577200599997  9.3169274603799987
 15.2066188302000000  7.0006023884399999  2.6113719106000000
 15.1132708461000007 17.1190411660600006  9.3181910636799987
  5.9159798473999992 14.8037179075199994  0.5286355043800000
  4.6157805617000003  4.9341498478800006  6.8550634100600005
 14.4790144785999999  4.9339382565199994 12.1289957155200003
 15.8786891984000000 14.8030059578600000  5.5610495220599994
  3.8585404466000002 16.4071601943000012 13.1128711512599985
  6.1981288298999999  7.0354741051799996  7.2555899099200003
  3.8582617983000000 13.1998366476199998 13.1132322934199994
  6.1988132962000000  2.8332627872799998  7.2543486480199988
 16.3704007880000013  3.3254398836600001 13.1102702180399984
 13.9869390590999991 13.2353162947599987  6.6109761241199987
 16.3700403733999984  6.5438174998600003 13.1096694972199987
 13.9870206245000013 16.3711292648199986  6.6108613944600005
  1.8732259539000000 14.8038339669599992  0.7844758123400000
  7.8238815430999997  4.9343144627999997  6.7938833260399987
 18.4879267670999994  4.9345832943599994 12.9269900461600002
 11.8895026781999995 14.8036557328199994  6.0972113184199994
  1.3522492612999999 16.9972766545399985 12.5113993973800000
  8.2260753070999986  7.2236080364599999  5.5253270690800003
  1.3520989880999998 12.6094051688999986 12.5124330156799992
  8.2291046781999988  2.6460099603200002  5.5252387548400002
 18.7019963647999994  2.5507723338999999  0.9318243106000000
 11.5474220113000001 12.4291944655799984  7.2410247627400004
 18.7017884332999991  7.3184637325799997  0.9313865505799999
 11.5477956853000006 17.1776164443799999  7.2410909984200007
  2.4804345516999997 16.3378699452999996 10.1637791473199997
  7.6858005622999999  6.8087008677199998  2.9391289223200001
  2.4813522628999998 13.2695636985599990 10.1660126302200009
  7.6873858641999995  3.0619535714399997  2.9403138050400002
 17.7159102560999990  3.1282546977199996  3.3754697377399996
 12.5909753641000002 13.2316175909399991  9.5902213956999987
 17.7152123295000017  6.7408230700000002  3.3750574732000000
 12.5913389930999990 16.3765945196399976  9.5906683551200000
  3.9518689434000001 14.8035572402000000  8.6161516004199985
  5.9259464963999990  4.9345313834199995  2.2706401965400000
 15.9266767751000007  4.9345416471799997  4.1055162486199999
 14.5209834930999993 14.8037319214999989 10.4890569207399995
  6.4568163085999997  4.9341109640199994  9.6547332395599987
  8.6800052408999999  1.4185357158800000  9.0581032613199994
  1.4281440579000000 11.2092893493800005  2.6310287942599997
  8.6791168611000007  8.4506695593199996  9.0574370933400008
  1.4284791591000001 18.3982273914600007  2.6311048864400002
 11.4828372820000002 18.3499421246799983  4.0963549604200002
 18.4717440711999998  8.5488878211199992 10.6625962422199994
 11.4820579908999996 11.2569745809599997  4.0961440313199997
 18.4729976871999995  1.3202469894200000 10.6626791682399986
  3.4770421951999997 10.4798571506400009  4.6318294301799998
  3.4778972256000000 19.1270921226999988  4.6314257079400001
 13.3675659662999990 19.1392981018999997  1.9430813661800002
 16.6716804730000021  9.2799458389199998  8.4652606760599998
 13.3667838626000002 10.4678412483799992  1.9426617421199999
 16.6727966734000006  0.5885920944999999  8.4650276683999994
  5.4334526021999991  0.9439343216000000  0.8978946892600000
  4.3524291894999996 10.7448747368999999  7.5712652181999998
  5.4323767827000005  8.9250344923600000  0.8974164518799999
  4.3530557966000005 18.8619764385800011  7.5713963753599991
 14.4188794834000014 18.5523391295200000 12.3278456090599988
 15.6021672240000004  8.8198155567200001  5.6534461929399997
 14.4186779807000018 11.0545641542799995 12.3277507238199995
 15.6033378683000006  1.0493158983599999  5.6533331717399999
  2.3438526867000000  1.0539353798800000  0.7806349314200000
  7.5175040205999997 10.9116774168199999  7.3441676470199999
  2.3428841478000000  8.8152355512000007  0.7801166109400000
  7.5181892905000005 18.6961882918600004  7.3446320852999998
 17.4830701696000013 18.6632953096200005 12.5011301071599981
 12.4996221160999994  8.8018877286999988  5.9191065975599999
 17.4827776591999999 10.9434682291400005 12.5008811976800001
 12.5011346921999991  1.0669537751600000  5.9190206488799992
  1.4175749097999999  0.6341150281800000 11.0027412974000001
  8.4891980550999993 10.7020711074799983  4.3247935412800000
  1.4166750787000000  9.2350551133799996 11.0020437200399996
  8.4898993970000003 18.9057211758400001  4.3254272485199996
 18.5746042684999999 18.9212640613199987  2.2587240823000001
 11.6537485372000003  9.1259057497999994  8.9390983773000006
 18.5742970924000019 10.6855963910200007  2.2582801455400001
 11.6542779086999992  0.7444622909800001  8.9388644496999987
  3.8781517019000002  1.6625858221200001  9.5021689443399993
  5.8459362633000005 11.3352531203999991  2.9060031971199995
  3.8779060012000000  8.2059615855399990  9.5021341180399990
  5.8470994743000002 18.2715946996199996  2.9061878422200000
 15.8821201685999984 18.4221926789199983  3.6255309826200000
 14.2721387081000000  8.6077585773000003 10.2766302898399982
 15.8815827611000007 11.1848639691400003  3.6252404130000002
 14.2734740904000006  1.2609791046800001 10.2764417021399996
  8.5836714809999997 16.3677842659600010  9.0885543266800006
  1.6221610230000001  6.4767098789000004  2.5924402024999997
  8.5839927200999995 13.2393138319000006  9.0891575444799990
  1.6226321335000000  3.3919174676599999  2.5925256255000000
 11.6363976077999993  3.4010308970199996  4.0480545620799999
 18.6114224078999975 13.2699110873600006 10.6924203027599987
 11.6354196265999992  6.4675060494999999  4.0486856409199996
 18.6116789571999988 16.3373007013800020 10.6923121441000006
  6.3777659757000000 17.2723833195000012 10.9363270176199983
  3.8331671784000001  7.4209781674599995  4.4805711869199998
  6.3778489473999995 12.3343656131399992 10.9368835813200000
  3.8338365771999996  2.4475727930400000  4.4797704448599998
 13.7403809178999996  2.5207962332999996  2.0216558071400001
 16.5862839099999988 12.3479309484000002  8.6590557621399995
 13.7394330716999988  7.3482704811400001  2.0218501773199997
 16.5864598984000011 17.2591035931000008  8.6593299042599998
  5.4128408648999997 16.3483407569199990  0.4661107309200000
  4.6463028969000000  6.5112523657999999  7.2022891119999990
  5.4127251465000006 13.2590393969599987  0.4665131389600000
  4.6469580317999997  3.3570420007000004  7.2015333155799999
 14.8728023857000000  3.3957705226399999 12.4842881084799995
 15.4872206818000002 13.2852532373799992  5.9787355313199999
 14.8719304797000014  6.4725498980199996 12.4843241175599999
 15.4873516686000006 16.3212734453800010  5.9790237353800002
  2.3262823744999999 16.3386778216400010  0.4995597493200000
  7.7223563263000008  6.5488593745800001  6.9012609569800007
  2.3259952883999997 13.2689634659800006  0.5003766560400000
  7.7232662023999996  3.3198275807399997  6.9008358132800005
 17.9791981438999997  3.3890155868999998 12.8849129104999989
 12.4238681504000006 13.2689099759999998  6.1576616271799995
 17.9789542512999994  6.4799773074199996 12.8840624916800000
 12.4241285167999997 16.3380481794400012  6.1576147102399998
  1.4195103803999998 17.3019946618600002 10.9090688011599983
  8.6600046413999987  7.5753407755000000  3.9959350985400000
  1.4192602598999999 12.3051275163599989 10.9101164813999993
  8.6612676996999998  2.2938787110600001  3.9962838872199997
 18.8234434282999992  2.2863666256399999  2.5341345367199999
 11.5282091407000014 12.2417999197800000  8.8605903034399986
 18.8228473580000006  7.5824827734200007  2.5337967873200000
 11.5282690089000006 17.3654817414800000  8.8609130709600006
  3.8759235199999997 16.2768396545399980  9.3258102695999998
  6.1083926260000005  6.5010367665199995  2.6626794613799998
  3.8756133304000002 13.3296743958999997  9.3268982957799995
  6.1099737090000001  3.3681404807200002  2.6631972561799997
 16.1698593945000013  3.3656746123800003  3.8175688518799999
 14.0627703713000010 13.2588092518799989 10.2827635298200004
 16.1691889911999986  6.5035689545400004  3.8176537491999998
 14.0633314850000009 16.3489477004199983 10.2832713367000004
  6.4292576502000003  0.6513113659199999 11.1074705525000006
  6.4287083896000006  9.2168041743000000 11.1079615376199996
  6.4434223055999995  3.2090079876000002  9.9848019290799996
  6.4424103723000004  6.6591324224999999  9.9844323760399991
