La  H Os  C  N  O 
 1.0000000000000000
    10.9957709999999995    0.0000000000000000    0.0000000000000000
    -0.0000000000000000   21.7718649999999982   -0.7266790000000000
     0.0000000000000000    0.0000000000000000   35.3317040000000020
 La  H   Os  C   N   O  
  24   7  24   3  84   1
Selective dynamics
Cartesian
  0.0000000000000000 19.4215050857899989 15.8352454304060011   F   F   F
  3.6652533347429999 19.4215050857899989 15.8352454304060011   F   F   F
  7.3305176652570001 19.4215050857899989 15.8352454304060011   F   F   F
  0.0000000000000000 10.7127590857899992 14.3593318304060009   F   F   F
  3.6652533347429999 10.7127590857899992 14.3593318304060009   F   F   F
  7.3305176652570001 10.7127590857899992 14.3593318304060009   F   F   F
  0.0000000000000000  6.3583860857899985 18.0378380304060002   F   F   F
  3.6652533347429999  6.3583860857899985 18.0378380304060002   F   F   F
  7.3305176652570001  6.3583860857899985 18.0378380304060002   F   F   F
  0.0000000000000000 15.0671320857900000 19.5137516304059986   T   T   T
  3.6652533347429999 15.0671320857900000 19.5137516304059986   T   T   T
  7.3305176652570001 15.0671320857900000 19.5137516304059986   T   T   T
  0.0000000000000000  6.7047329142099992 14.0313222495940018   F   F   F
  3.6652533347429999  6.7047329142099992 14.0313222495940018   F   F   F
  7.3305176652570001  6.7047329142099992 14.0313222495940018   F   F   F
  0.0000000000000000  2.3503599142099998 17.7098284495940028   F   F   F
  3.6652533347429999  2.3503599142099998 17.7098284495940028   F   F   F
  7.3305176652570001  2.3503599142099998 17.7098284495940028   F   F   F
  0.0000000000000000 15.4134789142099979 15.5072358495940019   F   F   F
  3.6652533347429999 15.4134789142099979 15.5072358495940019   F   F   F
  7.3305176652570001 15.4134789142099979 15.5072358495940019   F   F   F
  0.0000000000000000 11.0591059142099990 19.1857420495940012   T   T   T
  3.6652533347429999 11.0591059142099990 19.1857420495940012   T   T   T
  7.3305176652570001 11.0591059142099990 19.1857420495940012   T   T   T
  4.0253318476800004 19.4596929369999998 22.4907465226720014   T   T   T
  3.6616247303129996 17.7360361568149969 22.6512688895830046   T   T   T
  3.4668676343609999 18.8144619458599998 24.0442650669560010   T   T   T
  1.6035132849299998 20.0432224627300002 22.8966284565699993   T   T   T
  1.1807808688349999 16.9695576494899960 22.8903964427539997   T   T   T
  1.0420472261280000 18.0233594592199999 24.3061908139640011   T   T   T
 -0.0979063449840000 18.1916124319399977 22.9634113690680017   T   T   T
  1.8326321652570001  4.5978477662949997 15.9538022901909997   F   F   F
  5.4978854999999998  4.5978477662949997 15.9538022901909997   F   F   F
  9.1631388347430001  4.5978477662949997 15.9538022901909997   F   F   F
  1.8326321652570001  0.2434747662950000 19.6323084901910043   T   T   T
  5.4978854999999998  0.2434747662950000 19.6323084901910043   T   T   T
  9.1631388347430001  0.2434747662950000 19.6323084901910043   T   T   T
  1.8326321652570001 13.3065937662950002 17.4297158901910016   F   F   F
  5.4978854999999998 13.3065937662950002 17.4297158901910016   F   F   F
  9.1631388347430001 13.3065937662950002 17.4297158901910016   F   F   F
  1.8326321652570001 17.6609667662949974 13.7512096901910006   F   F   F
  5.4978854999999998 17.6609667662949974 13.7512096901910006   F   F   F
  9.1631388347430001 17.6609667662949974 13.7512096901910006   F   F   F
  1.8326321652570001  4.1108982337050000 19.7938641898089998   T   T   T
  5.4978854999999998  4.1108982337050000 19.7938641898089998   T   T   T
  9.1631388347430001  4.1108982337050000 19.7938641898089998   T   T   T
  1.8326321652570001 21.5283902337049966 13.9127653898090013   F   F   F
  5.4978854999999998 21.5283902337049966 13.9127653898090013   F   F   F
  9.1631388347430001 21.5283902337049966 13.9127653898090013   F   F   F
  1.8326321652570001  8.4652712337049998 16.1153579898089987   F   F   F
  5.4978854999999998  8.4652712337049998 16.1153579898089987   F   F   F
  9.1631388347430001  8.4652712337049998 16.1153579898089987   F   F   F
  1.8326321652570001 17.1740172337049977 17.5912715898090006   F   F   F
  5.4978854999999998 17.1740172337049977 17.5912715898090006   F   F   F
  9.1631388347430001 17.1740172337049977 17.5912715898090006   F   F   F
  3.3396795512039996 18.7403722892650002 22.9568608823050049   T   T   T
  1.8908217853889999 19.0137180543399964 22.5682749264999991   T   T   T
  0.9530914387380001 17.9942504757149990 23.2130101743149986   T   T   T
  1.8326321652570001  3.9692940237449998 12.9501403285930010   F   F   F
  5.4978854999999998  3.9692940237449998 12.9501403285930010   F   F   F
  9.1631388347430001  3.9692940237449998 12.9501403285930010   F   F   F
  1.8326321652570001 21.3867860237449996 15.9019675285929996   F   F   F
  5.4978854999999998 21.3867860237449996 15.9019675285929996   F   F   F
  9.1631388347430001 21.3867860237449996 15.9019675285929996   F   F   F
  1.8326321652570001 12.6780400237449982 14.4260539285930012   F   F   F
  5.4978854999999998 12.6780400237449982 14.4260539285930012   F   F   F
  9.1631388347430001 12.6780400237449982 14.4260539285930012   F   F   F
  1.8326321652570001  8.3236670237449992 18.1045601285930005   F   F   F
  5.4978854999999998  8.3236670237449992 18.1045601285930005   F   F   F
  9.1631388347430001  8.3236670237449992 18.1045601285930005   F   F   F
  1.8326321652570001 17.0324130237450007 19.5804737285930024   T   T   T
  5.4978854999999998 17.0324130237450007 19.5804737285930024   T   T   T
  9.1631388347430001 17.0324130237450007 19.5804737285930024   T   T   T
  1.8326321652570001  4.3543729999999998 17.8738332399999997   F   F   F
  5.4978854999999998  4.3543729999999998 17.8738332399999997   F   F   F
  9.1631388347430001  4.3543729999999998 17.8738332399999997   F   F   F
  1.8326321652570001 13.0631189999999986 19.3497468400000017   T   T   T
  5.4978854999999998 13.0631189999999986 19.3497468400000017   T   T   T
  9.1631388347430001 13.0631189999999986 19.3497468400000017   T   T   T
  1.8326321652570001  8.7087459999999997 14.1953270400000005   F   F   F
  5.4978854999999998  8.7087459999999997 14.1953270400000005   F   F   F
  9.1631388347430001  8.7087459999999997 14.1953270400000005   F   F   F
  1.8326321652570001 17.4174919999999993 15.6712406400000042   F   F   F
  5.4978854999999998 17.4174919999999993 15.6712406400000042   F   F   F
  9.1631388347430001 17.4174919999999993 15.6712406400000042   F   F   F
  1.8326321652570001  6.0958173938900000 19.9866303140819994   T   T   T
  5.4978854999999998  6.0958173938900000 19.9866303140819994   T   T   T
  9.1631388347430001  6.0958173938900000 19.9866303140819994   T   T   T
  1.8326321652570001  1.7414443938899999 14.8322105140820000   F   F   F
  5.4978854999999998  1.7414443938899999 14.8322105140820000   F   F   F
  9.1631388347430001  1.7414443938899999 14.8322105140820000   F   F   F
  1.8326321652570001 14.8045633938899979 12.6296179140820009   F   F   F
  5.4978854999999998 14.8045633938899979 12.6296179140820009   F   F   F
  9.1631388347430001 14.8045633938899979 12.6296179140820009   F   F   F
  1.8326321652570001 10.4501903938899989 16.3081241140819984   F   F   F
  5.4978854999999998 10.4501903938899989 16.3081241140819984   F   F   F
  9.1631388347430001 10.4501903938899989 16.3081241140819984   F   F   F
  1.8326321652570001 19.1589363938899986 17.7840377140820003   F   F   F
  5.4978854999999998 19.1589363938899986 17.7840377140820003   F   F   F
  9.1631388347430001 19.1589363938899986 17.7840377140820003   F   F   F
  1.8326321652570001  4.7394519762549994 13.9646001514070015   F   F   F
  5.4978854999999998  4.7394519762549994 13.9646001514070015   F   F   F
  9.1631388347430001  4.7394519762549994 13.9646001514070015   F   F   F
  1.8326321652570001  0.3850789762550000 17.6431063514070026   F   F   F
  5.4978854999999998  0.3850789762550000 17.6431063514070026   F   F   F
  9.1631388347430001  0.3850789762550000 17.6431063514070026   F   F   F
  1.8326321652570001 13.4481979762549990 15.4405137514070017   F   F   F
  5.4978854999999998 13.4481979762549990 15.4405137514070017   F   F   F
  9.1631388347430001 13.4481979762549990 15.4405137514070017   F   F   F
  1.8326321652570001  9.0938249762549983 19.1190199514070009   T   T   T
  5.4978854999999998  9.0938249762549983 19.1190199514070009   T   T   T
  9.1631388347430001  9.0938249762549983 19.1190199514070009   T   T   T
  1.8326321652570001 17.8025709762549980 20.5949335514070029   T   T   T
  5.4978854999999998 17.8025709762549980 20.5949335514070029   T   T   T
  9.1631388347430001 17.8025709762549980 20.5949335514070029   T   T   T
  1.8326321652570001  6.5315594999999993 16.0345801400000028   F   F   F
  5.4978854999999998  6.5315594999999993 16.0345801400000028   F   F   F
  9.1631388347430001  6.5315594999999993 16.0345801400000028   F   F   F
  1.8326321652570001  2.1771864999999999 19.7130863400000038   T   T   T
  5.4978854999999998  2.1771864999999999 19.7130863400000038   T   T   T
  9.1631388347430001  2.1771864999999999 19.7130863400000038   T   T   T
  1.8326321652570001 15.2403054999999981 17.5104937400000011   F   F   F
  5.4978854999999998 15.2403054999999981 17.5104937400000011   F   F   F
  9.1631388347430001 15.2403054999999981 17.5104937400000011   F   F   F
  1.8326321652570001 19.5946785000000006 13.8319875400000001   F   F   F
  5.4978854999999998 19.5946785000000006 13.8319875400000001   F   F   F
  9.1631388347430001 19.5946785000000006 13.8319875400000001   F   F   F
  1.8326321652570001  2.6129286061099997 15.7610361659180018   F   F   F
  5.4978854999999998  2.6129286061099997 15.7610361659180018   F   F   F
  9.1631388347430001  2.6129286061099997 15.7610361659180018   F   F   F
  1.8326321652570001 20.0304206061099990 18.7128633659180039   T   T   T
  5.4978854999999998 20.0304206061099990 18.7128633659180039   T   T   T
  9.1631388347430001 20.0304206061099990 18.7128633659180039   T   T   T
  1.8326321652570001 11.3216746061099993 17.2369497659180020   F   F   F
  5.4978854999999998 11.3216746061099993 17.2369497659180020   F   F   F
  9.1631388347430001 11.3216746061099993 17.2369497659180020   F   F   F
  1.8326321652570001  6.9673016061099995 20.9154559659179995   T   T   T
  5.4978854999999998  6.9673016061099995 20.9154559659179995   T   T   T
  9.1631388347430001  6.9673016061099995 20.9154559659179995   T   T   T
  1.8326321652570001 15.6760476061100000 13.5584435659180009   F   F   F
  5.4978854999999998 15.6760476061100000 13.5584435659180009   F   F   F
  9.1631388347430001 15.6760476061100000 13.5584435659180009   F   F   F
  1.8326321652570001 18.9665384228849980 21.1530483094930020   T   T   T
