Ag Ir  O 
 1.0000000000000000
     7.5548700000000002    0.0000000000000000   -0.0304030000000000
    10.6454979999999999   10.5566980000000008    1.4189520000000000
     0.0000000000000000    0.0000000000000000   32.1594449999999981
 Ag  Ir  O  
  12  12  44
Cartesian
  8.3561497334560002  7.0378021855660009 22.3805420159979995
  5.2655137543440000  3.5188958144340003 20.9311868039769990
 12.8203864207299993 10.5566980000000008 20.9007850109079989
  9.7297610871159996  7.0378021855660009 19.4514312178389979
  6.6391251080040004  3.5188958144340003 18.0020760058180009
 14.1939977743899988 10.5566980000000008 17.9716742127490008
 11.1033724407759991  7.0378021855660009 16.5222882602349976
  8.0127364616639998  3.5188958144340003 15.0729330482139989
 15.5676091280500000 10.5566980000000008 15.0425312551449988
 12.4769837944360003  7.0378021855660009 13.5931774620759995
  9.3863478153240010  3.5188958144340003 12.1438222500549990
 16.9412204817100012 10.5566980000000008 12.1134204569859989
 12.1335847334560007  7.0378021855660009 22.3653405159979997
  9.0429487543439997  3.5188958144340003 20.9159853039769992
  5.9523234207300000  0.0000000000000000 19.4666315109079981
 13.5071960871160002  7.0378021855660009 19.4362297178389980
 10.4165601080040009  3.5188958144340003 17.9868745058180011
  7.3259347743900003  0.0000000000000000 16.5375207127490000
  7.3259374407760003  7.0378021855660009 16.5374897602349975
  4.2353014616640001  3.5188958144340003 15.0881345482139988
  1.1446761280500002  0.0000000000000000 13.6387807551449995
  8.6995487944359997  7.0378021855660009 13.6083789620759994
  5.6089128153240004  3.5188958144340003 12.1590237500549989
  2.5182874817099998  0.0000000000000000 10.7096699569859997
 15.9110065458520005  9.3317937743620014 22.3501185243919984
 12.8203887671079997  5.8128979599280006 20.9007647009199999
  9.7297634334940000  2.2940021454940003 19.4514109078509989
  5.2655193870780002  1.2249042256380001 20.9311751665409957
 12.8203814079659999  8.2626958545060010 20.9007719545199997
 10.4618657644660011  7.0378021855660009 21.5813637264139970
  7.3712297853540001  3.5188958144340003 20.1320085143930001
  7.6240375012360007  7.0378021855660009 20.2505773783809992
 10.7146628348499995 10.5566980000000008 21.6999311714499967
  9.7297554543820013  9.3317937743620014 19.4514106958299990
  6.6391301207679998  5.8128979599280006 18.0020569027609980
  3.5485047871540001  2.2940021454940003 16.5527031096920005
  9.7297560743520002  4.7438000400720002 19.4514181614509987
  6.6391307407380005  1.2249042256380001 18.0020643683820012
 14.1939927616259993  8.2626958545060010 17.9716611563609980
 11.8354771181260006  7.0378021855660009 18.6522529282549989
  8.7448411390139995  3.5188958144340003 17.2028977162339984
 14.9261024517400003 10.5566980000000008 20.1016067213239999
  8.9976488548960010  7.0378021855660009 17.3214665802219976
  4.5334015221240005  3.5188958144340003 18.8012221663599988
 12.0882741885100007 10.5566980000000008 18.7708203732910022
 11.1033668080420007  9.3317937743620014 16.5222998976709974
  8.0127414744280010  5.8128979599280006 15.0729461046019999
  4.9221161408139995  2.2940021454940003 13.6235923115329989
 11.1033674280119996  4.7438000400720002 16.5223073632920006
  8.0127420943979999  1.2249042256380001 15.0729535702229978
 15.5676041152859987  8.2626958545060010 15.0425503582019999
 13.2090960266560007  7.0378021855660009 15.7231420996929998
 10.1184600475439996  3.5188958144340003 14.2737868876719993
 16.2997213602699986 10.5566980000000008 17.1724958927619973
 10.3712677634260011  7.0378021855660009 14.3923557516600003
  5.9070204306540006  3.5188958144340003 15.8721113377979997
 13.4618930970400008 10.5566980000000008 15.8417095447289977
 12.4769781617020001  9.3317937743620014 13.5931890995119993
  9.3863528280880004  5.8128979599280006 12.1438353064429982
  4.9221087816719997  4.7438000400720002 13.6235995651329986
  1.8314834480580000  1.2249042256380001 12.1742457720639994
  9.3863530238159996  8.2626958545060010 12.1438425296399988
 14.5827073803160001  7.0378021855660009 12.7940313015339981
 17.6733327139300016 10.5566980000000008 14.2433850946029992
  7.2806317843140000  3.5188958144340003 12.9430005396389980
 14.8355044507000002 10.5566980000000008 12.9125987465699996
 14.1830561957520001 17.3559399241620014 25.5422399332870000
 12.5015763347219995 17.3559399241620014 25.5490066985939990
