 O Si Au 
 1.0000000000000000
    11.9587094399999998   -0.0000003700000000    0.0000010700000000
    -0.0000003700000000   11.9587162199999995   -0.0000031600000000
     0.0000010700000000   -0.0000031600000000   11.9587174399999991
 O   Si  Au 
  48  24   8
Cartesian
 11.5654309505960153  2.1827541776180910  6.7040878300410505
  5.6549803916056538 11.8490227830756290  3.2589296498672358
  2.4455708309408184  5.5170544810915159  1.0322210774072569
  5.7656250015928334 11.8818897834606059  9.9455810934733364
  9.1541212222005210  5.5992009306751811  0.7186431569127765
  2.5822006076325503 11.4506205611533964  6.7215742015634126
 11.5496039119134082  5.4143978266727188  3.3033961828362264
  5.6243057929546652  1.7696819006460627  0.7682278047783004
 11.1790737047358419  5.5157547910539098 10.0295053534847600
  5.6868612360499942  8.5486660190365740  0.7963482585994104
 11.4985843245429926  8.6534039488366936  6.8092989102770165
  9.0393924640430043 11.6616760362347804  6.7234638421418058
  1.0269532827643995  0.7451364463367255  5.0083200866607260
  3.5346771775123287  0.9295535419638137  2.2301797313882710
  0.9789543713192128  3.5506570994296696  1.9666609373270936
  1.1204244171290987  0.9334305298700772  8.5017770000457009
  3.6779831861883943  0.5159967823156199 11.5544829668839082
  1.1288485175403531  4.0505547002648790 11.2148478914049718
 10.3589813160070161  0.8227797545396979  4.7160039254143431
  7.8057791487307222  0.9391631229629658  2.0502193516080260
 10.2589948318734994  3.4900283457427808  2.1463643543613329
 10.3457403903616942  0.8338861991942008  8.6917273690922752
  7.7586709058520178  0.9255364949766902 11.2191339992391228
 10.5254021222435750  3.4465988353657471 11.6091385685904047
  1.0258791070288622 10.0312410229944753  5.0494709279339025
  0.9311426174142534  7.4361843837823054  2.0133332258631236
  4.0772904892241515 10.3378516821699247  1.7583282787828398
  0.8694584132145582 10.3606357690615596  8.5380206415608164
  1.0680077934953875  6.9174782040741825 11.3987607222569522
  4.1870494469852195  9.9448573387823700 11.0802919023634470
 10.2049359777002024 10.0886608951754493  8.5886845355629564
  7.2576350315144280 10.2227371807407845 11.4131044059019278
 10.5494578988708447  7.5437908547594592 11.6388460514783922
 10.3257739779618944 10.0741472262432001  4.8517966607474623
  7.3306484520384423 10.2249363518403715  2.0399821066670061
 10.2683756064953062  7.4695083151657711  2.2325656853375730
 11.7988665070051617  3.0625947594328764  4.2626761088802052
  3.1792386031507402 11.1448596715358850  4.2183720136222620
  3.1278169158006879  2.9191171257861863  0.5483849131414246
 11.7364798092684275  2.9779692461172158  9.3115836063865327
  3.2375132313620592 11.4684880037914620  9.1925132734375019
  8.2070678620550499 11.4978700550501447  4.2217614707271025
  8.1344024886902684  3.1000255609870786  0.5437708030010608
  8.1466409516736800 11.2847676579018366  9.1597691186549444
 11.6911211508630846  7.8256612267371786  4.4054793865966406
  3.0412433567182044  8.1521078252137276  0.6109335941871493
 11.7589395450492180  8.1080036543175478  9.3465581528945769
  8.2900278528696738  8.1504607925021730  0.7452977886852659
 11.6872855283125077  1.7151570683902340  5.1211238977518088
  4.0977674538463029 11.5137255150032694  2.9075866663000296
  1.9176770592509420  3.9890915665903743  0.6990938999081727
 11.6183882159003495  1.7336280316934245  8.2646899361189075
  4.2637041941876213 11.4827362050051107 10.4725427856667608
  7.2237009137073018 11.5963715019349838  2.9311000347962328
  9.4876810176525517  4.0040546472596708  0.8080347819528210
  7.2662067907730847 11.5570513974758455 10.4877288120182257
  1.9285219917964551 11.3512912827999468  5.2218866644471227
 11.6950761223418827  3.8849532253493932  2.8985497673979110
  4.0528125139631124  1.5983476113567934  0.8318797768254746
  1.9741529816408772 11.5230695582103859  8.2074990625116016
 11.6431993247531729  4.0167158044262568 10.5652527448185811
 11.6531235609009833  7.0582544083170937  2.9534683782692812
  4.2480882893991039  9.2602280431923560  0.5400884126088560
 11.6555693215061460  7.0171107042926577 10.5712847672807637
 11.5655211658677022  9.2866103896253431  8.3448571443061983
  9.5027090800495291  7.1327806619072316  0.8952889445486919
 11.5962129214009142  9.1717937749432945  5.2624477697930887
  1.8948474398061190  7.0225878088397025  0.8051916745250450
  9.4536855938204774 11.4941445221500693  8.2776984870398493
  7.1506917935767866  9.2748187257803067  0.7568068180664388
  9.5153537521818006 11.4358043827814537  5.1806171891220725
  7.3343496974789666  1.6700936244506981  0.6962605421323804
  7.1244761733427788  3.9086332266616552  3.1726803475243877
  2.8681840693578957  4.3163508707498313  4.4120258459909429
  5.0004895838699053  2.3854637320438905  4.3551439507994925
  4.2806920086126414  6.5660139319761983  3.3067733266503918
  5.4238850519844997  4.7919025959190815  5.0901256483130481
  4.5074485022752722  4.0181738217457896  2.3091859432698638
  7.0109638483139713  6.5421196957579903  3.9061776209941121
  6.1043820174386578  5.8366173510199335  1.4252530596905564
