 O Si Au 
 1.0000000000000000
    18.1541673199999991    0.0003963400000000    0.0000389000000000
    -9.0767404299999992   15.7217942399999995    0.0000413600000000
     0.0000163600000000    0.0000295300000000    7.6305892899999996
 O   Si  Au 
  72  36   8
Cartesian
 15.3321283083192856  4.3599909384816389  0.2618907923390529
  6.2280461758631098 11.5311667279921775  0.3331856656882166
  4.5417073041398401  0.1907106591967565  0.3136097569549365
 11.1952386852880625 11.6815278647260126  4.1037911616640494
  2.2808073397101820  4.6425792488413178  4.1655601633425521
 12.8207222236904350  0.2275921477042264  4.0387631323137523
 12.8235573376469016  0.2642230535125131  0.1835509623092131
  2.1411988053610256  4.5451414186595844  0.0383611477311948
 11.2250587911494755 11.7076827515894273  0.0599177249579558
  4.6875868865947341  0.1870871051507375  4.0132750234692098
  6.1305683987016391 11.3229052469029661  3.8207266386854792
 15.3617803505494681  4.3456645321747702  4.1023593699020067
 -2.3530446873587794  6.9116433644346280  7.3082218644405730
  3.8742184409661657 10.7614276067538608  7.0401362945627985
 -2.4325397898203462 14.2437859412365420  7.3313399112168689
 10.4724532826521433  9.0896871660346878  3.4348266567589438
  4.8196961359231487  5.1182250965847365  3.5539960088354161
 10.8099641369668529  1.7694648565895890  3.3806128025396940
  1.8671982217375858 14.2467283778173748  7.3454422235067538
  1.5315129043037061  7.0680775427274947  7.3826891674553385
 -4.5441332579966698 10.5684470404959683  7.3577230865931078
  6.2972073068852277  2.3126524355495599  3.5221130626721213
  7.1180613617809101  8.9748987457305649  3.3982176829898885
 13.0649860986656101  5.5098303680251579  3.4739230754522041
 10.8095301572093714  9.2205463212641341  0.8784016883327270
  4.5091366039074625  5.4196769646684988  0.9481253911529856
 10.7184139775829799  1.8176929395919463  0.8315072308591546
 -2.3400965170762498  6.8964583828302759  4.7027870323425454
  3.4768799768983412 10.9527218081861761  4.4480188968467509
 -2.6122664635127593 13.9780574971389804  4.6772344252347748
  6.5904003237023394  1.7814844936057810  0.9041638897960074
  6.6853098309980146  9.0004403588772739  0.7557807918165027
 12.9998013910803500  5.5558400369308991  0.7654914577589533
  1.9820804568120884 14.1058779751958081  4.7724318631488227
  1.4296075634688359  7.0807969273155678  4.5393643189973849
 -4.5587999578563156 10.8338839515919574  4.6366930257228596
 -0.3820327024732094  5.2926389030255114  0.1131345921724002
  4.2423697475590298 13.2671528849576887  0.3008506800154699
 -4.8022903980935014 13.2542572054657448  0.1290866776066799
  8.6557958751097477 10.9352705589348425  4.3617738210523092
  3.8724924198329718  2.7049887627205051  4.5207505491363102
 13.1899731630185872  2.8088529715927875  4.0828531508777619
  8.6573814258709518 10.6570599099103127  0.0235417631011263
  4.2767413622596111  2.8537121044556675  0.2228525612473029
 13.1870884646006612  2.8739168964225472  0.3290120074939943
 -0.3086329111691180  5.1744724067112164  4.0457022432286003
  4.3294110388560902 13.3136259710821729  3.7446522829548567
 -5.0652045804065438 13.3438862041807091  3.9186745662113740
 -1.9210221263303136  6.0995597776206436  2.1302520033710186
  4.1898314071697094 11.2024837720727639  2.0192198517960742
 -3.2258657896086169 14.4247422284053233  2.1191589842655465
 10.5469844846142102  9.8381082088230425  5.9300424050388330
  4.2344995102130030  4.8765500691300199  5.9972732574906429
 11.7165844122063216  1.6815871599855532  6.0018764220424456
  2.5744203671139885 14.4245989524451232  2.1293450476177185
  1.2541638681429901  5.9696800796359337  2.1326691127939901
 -5.3142171826224738 11.4073336775384284  2.1028803744191134
  5.7385428505159988  1.5837898593833704  6.0315430985837768
  6.8149293150823400  9.7082332792174562  5.9114792889090628
 13.5525006795795804  4.7487104140524501  5.9884448312765270
  6.8306501157443718  4.3285743812899451  1.7645434196578633
 11.7371324625461959  3.8374904258262750  2.2043901879603975
  8.8055858593136449  7.7745082644430186  1.5944073082188848
  1.5584538752573620 11.8016050354300823  6.1379687238167202
 -2.4370309212305541 11.8897195445693349  6.1239586011729443
 -0.4055040131790599  8.2421908995713959  6.0805455201999266
  8.6436173439735686  2.4487685142102222  2.2954112711290335
 11.4140853527875610  7.0418075953348742  2.1921841713396577
  6.3288906017633382  6.8500148516689823  2.1163667495344729
 -0.3196069224371513 13.5595639960231011  5.8800498742569074
 -2.8964725544461780  9.1527110044157585  5.8575023426770798
  2.0564776610526385  9.2427039497644241  6.0152074431027804
 -1.9398723214368878  5.6507179314110463  0.5630097497988303
  4.6229917852080025 11.7179528940920079  0.5146523263190093
 -3.7811792868837553 14.4463127745914068  0.5728320065592492
 10.2147062554089985 10.4103725545485304  4.3960827183800841
  3.8322309046687084  4.3024191310150295  4.5455278997015309
 12.0920840336399245  1.6668165257049343  4.3762887045690988
  3.1604738211294254 14.4766900377630314  0.6202094550283320
  1.1527719012889537  5.7344247578547725  0.5322036174765493
 -5.3620398296661635 11.7474525071860718  0.4875723656779411
  5.1544871692097702  1.6501120656896646  4.5130987871766584
  7.1561199635155006 10.2226889016678850  4.4633771601367958
 13.7140119550917081  4.3755707204315684  4.4124007617667784
 10.2906341247325983 10.3786446148091631  7.4575318767185061
  3.7658308972937684  4.4017625104467131  7.4898993735234587
 12.0817526498604533  1.6949558481986364  7.5481405566346105
 -1.8608869249621605  5.6233232138577494  3.7507587666444686
  4.5377450469283831 11.7207536275994979  3.5189945530640854
 -3.8142082322165733 14.4458837018777650  3.7198351433078676
  5.3227255258619710  1.6697491960952870  7.5576311729079775
  7.1285949954243266 10.2052050305919071  7.4438422499339181
 13.7331656926970584  4.3549756573990228  7.5443514503655766
  3.1576349492950868 14.4611918135113253  3.7352461519977194
  1.1391462213881174  5.7093885122876520  3.7183820697330261
 -5.4276898786160439 11.8281723955760878  3.7108202893573994
  7.0561679152854744  2.7587924615677921  2.1339297752367949
 12.0171366080438986  5.4844165460980507  2.1519478445527827
  7.2487216404235149  8.1724655438501976  2.0507110884288524
  1.2778234465265235 13.4614910583581668  6.0665180418040574
 -3.5755822198474916 10.6369222138556907  6.0580626273735030
  1.1605110057465553  7.8795796918799539  6.0312949952221508
 10.3045097580769944  8.2593100869262415  2.0450083071412757
 10.2963021034970250  2.8329235776404422  2.1458054704816849
  5.6078295225848898  5.4293216677143281  2.1153550662157432
 -2.0180335054967506  7.8046129628885890  5.9998109508019910
 -1.9114741375648239 13.4201612889858897  6.0328722821923382
  2.6900074515615326 10.7309521416325016  5.8915479616347897
  7.5517261256574590  4.6032259775355460  4.6497329584945843
 10.2380290537313545  4.7723561423284115  0.3540354123835665
  8.4785190583510488  3.2109636185525083  6.7174593197384462
 10.2515903813087963  6.9901894691074347  6.6796446639343143
 10.3082697592982306  4.6176775951100737  5.2989328228612553
  7.8219538796839627  5.8968499792101738  6.9627555780358499
  9.5649468822178427  5.0987889870188159  2.8779334483180374
  8.7438654015533768  6.9670389080955459  4.5195007213895355
