Ag12 Ir12 O44
1.0
7.554870 0.000000 -0.030403
10.645498 10.556698 1.418952
0.000000 0.000000 32.159445
Ag Ir O
12 12 44
direct
0.166667 0.666667 0.666667 Ag
0.227273 0.333333 0.636364 Ag
0.287879 1.000000 0.606061 Ag
0.348485 0.666667 0.575758 Ag
0.409091 0.333333 0.545455 Ag
0.469697 1.000000 0.515152 Ag
0.530303 0.666667 0.484848 Ag
0.590909 0.333333 0.454545 Ag
0.651515 1.000000 0.424242 Ag
0.712121 0.666667 0.393939 Ag
0.772727 0.333333 0.363636 Ag
0.833333 1.000000 0.333333 Ag
0.666667 0.666667 0.666667 Ir
0.727273 0.333333 0.636364 Ir
0.787879 0.000000 0.606061 Ir
0.848485 0.666667 0.575758 Ir
0.909091 0.333333 0.545455 Ir
0.969697 0.000000 0.515152 Ir
0.030303 0.666667 0.484848 Ir
0.090909 0.333333 0.454545 Ir
0.151515 0.000000 0.424242 Ir
0.212121 0.666667 0.393939 Ir
0.272727 0.333333 0.363636 Ir
0.333333 0.000000 0.333333 Ir
0.860467 0.883969 0.656789 O
0.921074 0.550636 0.626486 O
0.981680 0.217303 0.596183 O
0.533472 0.116031 0.646241 O
0.594078 0.782697 0.615938 O
0.445390 0.666667 0.642080 O
0.505996 0.333333 0.611777 O
0.069761 0.666667 0.600344 O
0.009155 1.000000 0.630647 O
0.042286 0.883969 0.565880 O
0.102892 0.550636 0.535577 O
0.163498 0.217303 0.505274 O
0.654684 0.449364 0.585635 O
0.715290 0.116031 0.555332 O
0.775896 0.782697 0.525029 O
0.627208 0.666667 0.551171 O
0.687814 0.333333 0.520868 O
0.566602 1.000000 0.581474 O
0.251579 0.666667 0.509435 O
0.130367 0.333333 0.570041 O
0.190973 1.000000 0.539738 O
0.224104 0.883969 0.474971 O
0.284710 0.550636 0.444668 O
0.345316 0.217303 0.414365 O
0.836502 0.449364 0.494726 O
0.897108 0.116031 0.464423 O
0.957714 0.782697 0.434120 O
0.809027 0.666667 0.460262 O
0.869633 0.333333 0.429959 O
0.748421 1.000000 0.490565 O
0.433398 0.666667 0.418526 O
0.312186 0.333333 0.479132 O
0.372792 1.000000 0.448829 O
0.405922 0.883969 0.384062 O
0.466528 0.550636 0.353759 O
0.018320 0.449364 0.403817 O
0.078926 0.116031 0.373514 O
0.139533 0.782697 0.343211 O
0.990845 0.666667 0.369353 O
0.930239 1.000000 0.399656 O
0.494004 0.333333 0.388223 O
0.554610 1.000000 0.357920 O
-0.439303 1.644069 0.721282 O
-0.661872 1.644069 0.721282 O
