 O Si Au 
 1.0000000000000000
    18.1541673199999991    0.0003963400000000    0.0000389000000000
    -9.0767404299999992   15.7217942399999995    0.0000413600000000
     0.0000163600000000    0.0000295300000000    7.6305892899999996
 O   Si  Au 
  72  36   8
Cartesian
 15.2492083221284798  4.5271152458003616  0.0795926676400108
  6.3023344914819610 11.6811979899719187  0.3769406619756960
  4.6859215598107307  0.1228113187863822  0.0318625790601726
 11.2950852397234165 11.7329514189554587  4.0439136535873779
  2.0885160406687802  4.7141535867076927  3.8606586963506673
 12.9640329778120318  0.3262771304187972  4.0229224124848741
 12.8904497458331111  0.2749863149442652  0.1680530388906692
  2.1730240661586571  4.6641397544166994  0.1000571271556190
 11.3350091532949246 11.7176376724012457  7.5422759191906934
  4.6245155782765037  0.1619605593155613  4.0106829851857073
  6.3579956837914882 11.6273684041859138  4.0444854910503683
 15.2691199179775712  4.5445901702832945  3.9305344837451330
 -2.1733181557608807  6.9703228179930719  7.0931011321536213
  3.7876910709935823 10.9619492436573900  7.3365631499388906
 -2.5268895684283859 13.9018802061677995  7.2850336053451334
 10.7005299180228342  9.1418013772295872  3.3801927855393985
  4.7121669256500249  5.1030750017093753  3.2897494047071332
 10.7826585994880588  1.8077102811041987  3.4401152352634963
  1.8203759293140021 14.2766389369546722  7.3503910575533355
  1.3608679116166584  7.1878283784061310  7.0545348569082789
 -4.4668971993738857 10.9657524363719556  7.2358765630659621
  6.2294758541021462  2.0841050425134400  3.1494020804883860
  6.8601843812306109  9.0899446400329804  3.5678818969345456
 12.7950442888067215  5.5319553957917504  3.4779857951206083
 10.7543553672335346  9.1628373299765169  0.7419525990360885
  4.6048275913033576  5.4629358240098886  0.6809069523147240
 10.7525778996597410  1.7240623050731534  0.7914107132945775
 -2.2883080597266123  7.1041738304475359  4.3958534443821442
  3.9289139118448886 10.8916045310432104  4.7222117305370332
 -2.4056052657071350 14.1616435341078351  4.6127316124460016
  6.5646847074873378  1.8355320564215547  0.5390633142945011
  6.6997112991222387  9.2514091540151711  0.9706512519564854
 12.9230466749923423  5.5510433745631156  0.8632292037830578
  1.8091527715261051 14.2803348650716107  4.5704175047345412
  1.5076837427963770  7.3650773288682636  4.3153487294060602
 -4.4010256409934287 10.7145190441443390  4.6191305667123537
 -0.3709813293802577  5.2455029730385299  0.0961217294950216
  4.3436932603064173 13.4293405029301134  0.0990124416368418
 -5.1044611935277242 13.4877996720335425  0.4861786726776793
  8.7658236054317520 10.9529337921694516  4.1593181091908527
  3.7414869368000492  2.6422581839839014  3.9226913732476216
 13.2707569359941093  2.9103515951144656  4.0220319680460292
  8.7648914166181857 10.7208026696972283  0.1851692618226195
  4.1402748062437995  2.8576614011540036  0.2033046983115687
 13.2464778731859525  2.8748627850715569  0.1296950416823111
 -0.2908802753377672  5.4539659686557789  3.9273937460544506
  4.3883345557189752 13.5022016876449698  4.0643552955149893
 -4.7067722991064400 13.2420030959723842  4.0399532371492803
 -1.9914884572257567  6.2488036105549138  1.9970836905645726
  4.4397824327859166 11.6604578316359451  2.2257712990378398
 -3.3130812406078003 14.4327401269447826  2.1143071470431125
 10.4469219334900600  9.8765601598003272  5.8968466052441046
  4.0371348873677046  4.6121930076473916  5.7869092084895648
 11.6592086020473626  1.7387782515255177  5.8343945473260366
  2.7906485250069695 14.5195213714818845  2.1144909520576931
  1.3259328386022935  6.3781501106707346  1.8731373358714818
 -5.0380637118061786 11.3809744468898728  2.1564261590330949
  5.6235307910049697  1.8698221692462988  5.7610201101335790
  7.0324291124470175  9.8601205529415790  6.0083575409724048
 13.4747759991667913  4.8652668821444776  5.9149175202149795
  6.7852199555509554  4.2900476419953950  1.7372492421659775
 11.7539005362219946  3.7045820322184611  2.0652096688284565
  8.7543779555889021  7.9443755080356580  1.9438752625329956
  1.7718924826138285 12.0347876546914296  5.9094920025995101
 -2.3052788264338191 11.7572602237733772  5.7559840380845166
 -0.3809688113546583  8.4508932869941340  5.6611525579316986
  8.6249533314350124  2.4255964991306400  2.1571115942123953
 11.3112469098721249  7.0245687157972787  1.9928693819921428
  6.2588553029086711  6.9421300759916615  2.1235094925522668
 -0.3140881501126862 13.5716694427379423  5.9667185475866766
 -2.9067975340251824  9.1528746743518745  6.1199142426526940
  2.1052633184036518  9.3937127405242986  5.9423559961297432
 -1.8605049042524584  5.7490282680907132  0.4227238236538781
  4.7144503757432785 11.9360271810004797  0.6572394728899955
 -3.8335122496190457 14.4180547122904326  0.5476973870688473
 10.3161892371366530 10.4742736084043511  4.3411329440216102
  3.6797312578646180  4.3023001815136839  4.2447347025615141
 12.1550047643235342  1.7310052439412680  4.2827041068398914
  3.2134669567710530 14.5364897813083278  0.5766121990425869
  1.1423730958409044  5.8328305393174613  0.3733634162791384
 -5.3669399270728020 11.9007342937860514  0.6131239172024699
  5.1040145279519207  1.6896142794533511  4.2088502969216712
  7.3116672497384378 10.3751546809225612  4.4870110864417727
 13.7209039856502848  4.4385410045325484  4.3557548063551303
 10.3403627709522219 10.4680844538758002  7.4051941172656539
  3.7665663546196471  4.4008469582670218  7.4294744900073555
 12.0918652331902550  1.7010442958771568  7.4372602799628806
 -1.8248714056535000  5.8060016011188109  3.5471036242760321
  4.7732692530716809 11.8947658070693123  3.7920400390334232
 -3.6973661663291000 14.4725262122869438  3.7164034102590309
  5.2111837245078245  1.6342530594511016  7.3426471081078502
  7.1882663405297054 10.3849240226968575  7.5421175086742265
 13.6406715264714595  4.4263230693683191  7.4741047809700500
  3.2023136781022310 14.6111102403413629  3.7148831502497841
  1.2040814618648215  5.9709171642883598  3.4510953523824708
 -5.2811631556967589 11.7613940668191077  3.7090927796170892
  7.0788492824897729  2.6740990840928687  1.8976033547287741
 11.8305935431696714  5.4117165519619581  2.1257408967245288
  7.1411126995284100  8.2992884787893235  2.1879017895297337
  1.3052540709453928 13.5790780181786275  5.9465983506655737
 -3.4981159196759508 10.7120607282789102  5.9784941221815391
  1.1658615102411589  8.0925464080844698  5.7337709129479997
 10.3190754075381008  8.2963550728637792  2.0141454949674054
 10.3776280748851093  2.6886230744260717  2.1012232160758901
  5.6622340531899633  5.4197402170056295  1.9311196798193309
 -1.9214634224805476  7.9222722346180596  5.8124627138501586
 -1.8876921999055796 13.2985551659426893  5.9062916797566398
  2.8519405370096051 10.8187243316361705  6.0142621826241109
  7.6063630937704261  4.2269877307008459  4.7572594428396897
 10.1466918754619524  4.8185371483168957  0.4660459600699960
  8.8452695684592619  2.9222239839382276  6.7465786147131466
 10.1396712149657393  7.1366029332025205  6.7149578315391656
 10.3733167759265736  4.8747017248341997  5.4336007327018274
  7.8121894818324202  5.5778277298492016  7.1217841213477131
  9.3444662206722846  4.9473837758069017  2.9265272640483686
  8.4182558755959231  6.8902912558389486  4.6603803209997636
