 H  C  O Al Si 
 1.0000000000000000
    18.7326300000000003   -1.4850060000000000   -1.3799530000000000
     0.0000000000000000    9.3956990000000005   -0.6899770000000000
     0.0000000000000000    0.0000000000000000    9.4209999999999994
 H   C   O   Al  Si 
   9   7  48   1  23
Cartesian
  3.1037499999999998  4.6349999999999998  1.9686200000000000
  4.2256700000000000  3.9033199999999999  6.2942499999999999
  5.6019199999999998  6.2378600000000004  6.2758000000000003
  5.8341500000000002  7.5511100000000004  3.9241400000000000
  4.6923599999999999  6.6382399999999997  1.8621300000000001
  3.3103600000000002  2.0623700000000000  4.6344799999999999
  2.7315399999999999  2.4899499999999999  2.9173800000000001
  1.6777700000000000  2.9229599999999998  4.3896499999999996
  5.5480999999999998  5.0700200000000004  2.3692799999999998
  3.4276200000000001  5.1760999999999999  2.9183100000000000
  3.4518399999999998  4.1938599999999999  4.1080500000000004
  4.2661100000000003  4.5561199999999999  5.3605499999999999
  5.1173200000000003  5.8321199999999997  5.3270700000000000
  5.3168300000000004  6.5365300000000000  3.9752000000000001
  4.7928899999999999  5.8613099999999996  2.6902900000000001
  2.7470500000000002  2.8285700000000000  4.0058100000000003
  2.3007399999999998  2.1013299999999999  8.0948899999999995
  0.1854500000000000  0.2129600000000000  2.9523100000000002
  8.3738600000000005  1.6998500000000001  1.5909000000000000
  3.0847000000000002 -0.0870600000000000 -0.0815600000000000
  2.3110400000000002  8.2336500000000008  1.4810800000000000
  0.1491100000000000  2.9515799999999999 -0.0098500000000000
  7.0503999999999998  6.5111600000000003 -0.0056500000000000
  9.1664399999999997  8.4714500000000008  5.0737399999999999
  7.0299800000000001  0.4679700000000000  6.4888000000000003
  9.1707500000000000  5.6622599999999998  8.0790500000000005
  1.0784400000000001  6.8418599999999996  6.5039699999999998
  6.3331299999999997  8.7008500000000009  8.0811799999999998
  2.4847000000000001  6.6829400000000003 -0.6617000000000000
 18.7183899999999994  1.0076700000000001  5.3830099999999996
  6.9145899999999996 -0.5264400000000000  1.9676100000000001
  6.9556100000000001  1.9240900000000001 -0.6682700000000000
 18.7043399999999984  5.4698700000000002  0.5099600000000000
  2.5826699999999998 -0.1640500000000000  6.7314800000000004
  1.3929600000000000  7.8394599999999999  3.8907799999999999
  4.7281199999999997  1.1380800000000000  7.6176000000000004
  7.9887199999999998  4.0771400000000000  0.4795900000000000
  7.9902199999999999  0.7542400000000000  4.0317699999999999
  4.7056399999999998  7.6036299999999999  0.4928900000000000
  1.4446600000000001  4.5164299999999997  7.6701600000000001
 11.6977799999999998  1.4257299999999999  7.3416899999999998
  9.5809899999999999 -0.5525300000000000  2.2959000000000001
 17.6498799999999996  0.9567000000000000  0.8981600000000000
 12.3099600000000002 -0.7739400000000000 -0.7190000000000000
 11.7161399999999993  7.4288800000000004  0.8849200000000000
  9.6036599999999996  2.2742399999999998 -0.6986200000000000
 16.3653900000000014  5.7429500000000004 -0.7576800000000000
 18.4859200000000001  7.7757899999999998  4.4017600000000003
 16.3472200000000001 -0.1854300000000000  5.7760199999999999
 18.5284399999999998  4.8488499999999997  7.3691500000000003
 10.3926800000000004  6.2308000000000003  5.7896400000000003
 15.7539499999999997  7.9653000000000000  7.3675199999999998
 11.8317200000000007  5.9790799999999997  8.0406099999999991
  9.3490800000000007  1.7408300000000001  6.0927499999999997
 16.2586100000000009  8.0794800000000002  0.5854600000000000
 16.2125300000000010  1.2096100000000001 -1.3585799999999999
  9.3773700000000009  6.1836000000000002  1.2878600000000000
 11.8283400000000007 -0.9363600000000000  6.0642100000000001
 10.7497199999999999  7.1553100000000001  3.3364199999999999
 14.0200600000000009  0.2725600000000000  6.9116700000000000
 17.3126999999999995  3.3257800000000000 -0.2181500000000000
 17.3175699999999999  0.0157600000000000  3.3278200000000000
 14.0412300000000005  6.9083800000000002 -0.2635900000000000
 10.7519700000000000  3.8516100000000000  6.8785600000000002
  1.1910200000000000  8.2818500000000004  5.5480799999999997
  0.9527400000000000  3.0041899999999999  7.9856600000000002
  8.2153799999999997  0.3361300000000000  2.4717400000000000
  3.1575700000000002  7.9498800000000003  0.1277500000000000
  6.2611900000000000  7.9307499999999997  0.1064000000000000
  8.3931500000000003  0.5091100000000000  5.5925599999999998
  1.1925200000000000  6.1049300000000004  7.9201499999999996
  8.4040199999999992  5.6090799999999996  0.1040200000000000
  6.2728099999999998  0.7016200000000000  7.9125600000000000
  3.1794899999999999  0.7371300000000000  7.9276600000000004
  0.9576100000000000  8.1614799999999992  2.3868399999999999
  8.2352399999999992  2.4944400000000000  0.1746000000000000
 10.3413500000000003  2.3221200000000000  7.2595099999999997
 17.5346800000000016 -0.4156100000000000  1.7694099999999999
 12.4701199999999996  7.2361599999999999 -0.5481000000000000
 15.6055899999999994  7.1818999999999997 -0.6214100000000000
 17.7206900000000012 -0.2132200000000000  4.8962700000000003
 10.5348600000000001  5.4330100000000003  7.2031599999999996
 17.7208800000000011  4.8483200000000002 -0.6303299999999999
 10.5312999999999999  7.5835999999999997  4.8927199999999997
 15.5851699999999997 -0.0390500000000000  7.2089400000000001
 12.4566400000000002 -0.0117400000000000  7.2587099999999998
 10.3499700000000008  7.4062999999999999  1.7768400000000000
 17.5155700000000003  1.7378000000000000 -0.5241700000000000
