 O Si Au 
 1.0000000000000000
     8.9848655900000001   -0.0000010900000000   -0.0000004000000000
    -0.0000010900000000    8.9848744800000002   -0.0000018100000000
    -0.0000004000000000   -0.0000018100000000    8.9848666399999999
 O   Si  Au 
  24  12   8
Cartesian
  1.2613242815014756  4.5303468654685846  7.6445171025488792
  5.8198451865774281  8.9448636600804807  3.2143078334624353
  7.6501311961782346  1.2565464196064029  4.5445820603014262
  3.1162536245437669  5.7086835539025591  8.9529998927742120
  4.5252303298777159  7.7888823127879805  1.1963561339978324
  0.0131421723615000  2.8792814988054110  6.0687695491338420
  1.3026683488743265  4.3990475847095292  1.3038878442927624
  5.8422671937824555  8.6628925125735670  5.8755513527339911
  4.5125668083570565  7.5015723141897999  7.6387968626963048
  8.8417165584481197  3.1816861511379093  3.3628041767942438
  7.6211846730085222  4.3699930161099969  7.7585245666289957
  3.1130653937719432  8.8828765248045780  3.2439579365170861
  1.1660815823263919  1.0569649337458498  4.5334982982908434
  5.8738928170082625  5.7900693570888446  0.1486697228040301
  7.7702182620538700  4.4577761583706721  1.3248336047340701
  3.1480101025079565  0.0635395404396717  5.9559755782793591
  4.6501424003578986  1.1099519680657839  7.8125233259544276
  0.1610700214112601  5.9330041740398096  3.0463250198126870
  1.4840247334627175  7.4323370771799286  4.7574712163294892
  5.6856700774814453  3.2102960921853785  0.1876117410798231
  4.2912626851004712  1.3494336266593616  1.4266611373018903
  8.7725013444592008  5.5548862827107568  5.6957286376071510
  7.8495787099751890  7.6774982626071395  4.5407289455949229
  2.9038247949420262  2.8442475533575236  8.9520213983533452
  2.2122081168325356  4.3427956848785279  8.9165234465943133
  6.7683731771080549  8.8503870561357285  4.5256542177488130
  8.9824906942115383  2.1464340909516331  4.6039371086232546
  4.4905058128203770  6.6247559346444218  0.0676576560332659
  4.4416953297408011  8.9235083924274274  2.3494992107455079
  8.9350310156603783  4.3366018548636500  6.7361209062305614
  4.5751593849646470  8.8946975764525895  6.7655474173215602
  0.0288860547512782  4.4669759604286785  2.3720931115287889
  6.7381609494071055  4.4424255074263241  0.1270389792226732
  2.2556593736344115  8.8986487578000339  4.6293053579158796
  4.4340874122499958  2.2156933078009073  0.0544179081765091
  0.0417569703869446  6.5935649452635730  4.5189839779151582
  4.4683521554116687  3.6614218494795940  2.8455295093235109
  4.2531506159242829  4.3268488569252073  6.9119938612468337
  4.3806287501313008  2.2967097876682261  5.2085126968190423
  4.6168410138813876  6.2912088630409118  5.1402037141925589
  6.2792448299864256  4.1489408375164567  5.0344326942292463
  2.5357353454930074  4.3265564188842385  4.7267546026437088
  6.0718045646905558  5.8534328867021692  2.9608883946099147
  3.1945093398221172  6.0434886024989298  2.8418113280492694
