 O Si Au 
 1.0000000000000000
    11.9587094399999998   -0.0000003700000000    0.0000010700000000
    -0.0000003700000000   11.9587162199999995   -0.0000031600000000
     0.0000010700000000   -0.0000031600000000   11.9587174399999991
 O   Si  Au 
  48  24   8
Cartesian
 11.5966578962700524  2.0999530951512457  6.7293596143447028
  5.6095004775952697 11.7580095045869353  3.3916017141088246
  2.3491964275155559  5.4966630843938020  1.0122280120075859
  5.6053787899895209 11.5250078369966200 10.0070787582867489
  8.9746258658295606  5.4943581344032184  0.3387443731069075
  2.2396530514503894 11.4778920948161183  6.6099866537521574
 11.8516980194657471  5.3513595849579616  3.3502593309041533
  5.6955405688195633  1.8163246756118907  0.4779269432916619
 11.3216634941262342  5.4518310360728650  9.9827621051022088
  5.6745046465608144  8.5793523623239327  0.6528807121292522
 11.4574704936711651  8.9225819115114700  6.6007142879458067
  9.2028197150543587 11.5485446545092234  6.7531084709076792
  0.9706228257714916  0.8494128326499614  4.6815972503470453
  3.6332654736024086  0.9256515948915209  1.9823261140840627
  1.0112265067267556  3.3422929804672137  1.9320671762243580
  1.0578259679264592  0.7788722314447221  8.5969384097272084
  3.6319962964372396  0.8674559799562495 11.3255142101493167
  0.9898944293481613  3.8410472944291678 11.3274686774753555
 10.3855791681005503  0.8279389587355768  4.8080891599854212
  7.7823044365455303  0.8007060906077383  1.9494924245556631
 10.2390839302356351  3.6478384483857651  2.0983177718210086
 10.4141943288212051  0.7281278250212162  8.8057042648631949
  7.8264404445457565  0.7732919725493599 11.2854683336488595
 10.4364999925117612  3.3554402056822541 11.4941177269912025
  0.8083574393874903 10.1223956101302726  4.6591894108662464
  0.9361912301299354  7.4193005784099331  2.0561277403096487
  3.9378264926783904 10.1798720751415601  2.0118966475087379
  1.1054316211968851  9.9676484447574172  8.4796710748620345
  1.0961374092619336  7.1645180489779721 11.2680401583331502
  3.8113867010606488 10.0522705887202566 11.3465634470153418
 10.3467912798189161 10.0888966739516217  8.7503494266031119
  7.4186584468211985 10.0808927307295964 11.2593623492718926
 10.4944816645145540  7.5081065704512566 11.4691432452385769
 10.2331906995337487 10.1812230108970923  4.5956943520718312
  7.3055814385056541 10.1830636406806843  1.9817548810989891
 10.2984518819124400  7.0510671270569993  2.1056241325601253
 11.6826072760410629  2.9894089994740654  4.1677729320846586
  3.0965938634193968 11.4832415999259148  4.1991982659669089
  3.2984355107267760  3.1360581972850539  0.4015026416486699
 11.6679969290778374  2.9981478308725236  9.1495253943003974
  3.1356643772349901 11.3045928412701837  9.2045479629284195
  8.0384553232358424 11.6757574951750840  4.3106854748216072
  8.1027186131559716  3.0866566526943715  0.6241376900338657
  8.0480669708921013 11.4260375560327407  9.0623544365239237
 11.5181489359438789  7.7446803005706997  4.3044511908881207
  3.1022831466879301  7.9279588530359781  0.8201985378378173
 11.6540219398341467  7.8299684945017241  9.0211774205276249
  8.2374360913102382  7.9647947713425786  0.8112065104034181
 11.6826329923471732  1.7384665178821050  5.1285392526863749
  4.0616281105545848 11.5460129818350712  2.8765389539683377
  1.9037365532712931  3.9447212635426729  0.6925662444707448
 11.7037894336402921  1.6364188399896964  8.3167725756416182
  4.0282604122362393 11.4393926656714857 10.5360789634637584
  7.1816563622691350 11.5498486369128841  2.9015795905654689
  9.4418050100565480  3.9232980623860167  0.7081083541946410
  7.1686088903370386 11.4262084750665434 10.4133591287338625
  1.7608875373312560 11.4352152063727051  5.0716553590190356
 11.6940474241597947  3.8419759048906847  2.7719687875418741
  4.1544533916955517  1.7385577441026059  0.6502964306921963
  1.8981590917850097 11.3596692604377303  8.1670388114131001
 11.5527463913660888  3.9260185367490368 10.4703402471597187
 11.6814493252572174  6.9006918589861792  2.9706846704137431
  4.1833214889742045  9.2024705153011599  0.6907784267296775
 11.6063430758299670  7.0088493022986809 10.4334974990001808
 11.6646331410898458  9.2208226682904062  8.1565842654312579
  9.5025128265870418  6.9774793188671715  0.7181930565224331
 11.4624437284494824  9.2423757467453065  4.9979191155930076
  1.8205834902618667  7.0178900843145202  0.7458907810801838
  9.4958441214113893 11.4252846524558631  8.3751921921116015
  7.1876658448344113  9.2312631889879153  0.6727195895532387
  9.4211981622979426 11.5222907895837263  5.1371389684347388
  7.2710288061583741  1.6461689107427453  0.6524000331827103
  6.8948599685566894  3.6739412200771793  2.9294006124980330
  3.1376078466488111  4.8971268415080980  4.9812552853529759
  4.9171491418630371  2.6760804751141860  4.9390679484992326
  4.5317018442856769  6.5455711206281588  3.2164758296268139
  5.8366580786288411  5.0216791498346485  5.0922896740369525
  4.1759922284841462  3.8903070453712987  2.7892070716347415
  7.2715615255334676  6.5047189868566839  3.2093190323558463
  5.7946886307720549  5.4241739631949173  1.2406433105781201
