 O Si Au 
 1.0000000000000000
    11.9587094399999998   -0.0000003700000000    0.0000010700000000
    -0.0000003700000000   11.9587162199999995   -0.0000031600000000
     0.0000010700000000   -0.0000031600000000   11.9587174399999991
 O   Si  Au 
  48  24   8
Cartesian
 11.1321016071667636  2.0295439336199141  6.5855646244444017
  4.9234348260398679 11.1555354133995532  3.2728041520480255
  1.6487498813321442  5.2063605709667007  0.2393944764396633
  5.1653051379052393 10.8358210037542371 10.2028895053402042
  8.5519547584335172  5.2009704748169261  0.5768341059422439
  1.7464127342035205 11.3819740005071797  6.5996696102555035
 10.9563634304879596  5.2492601833221242  3.2602451744924097
  5.0044468830718607  1.9253697235423193  0.6631934557916582
 11.1361835727893048  5.2495977466872450 10.1457326731252149
  5.1162371317609621  8.8298825531714069  0.3068853624065783
 10.8487800706648798  8.7815145504895114  6.4931628279398197
  8.5090642658287052 10.8892209511567071  6.7405092371222599
  0.1741369079745895  0.5497727589560276  4.6566138233068584
  3.0035522335887999  0.3420090605140624  1.6798537738181067
  0.6675590327441602  3.6601150858182274  2.0923804852449219
  0.4695650988451733  0.5573697981727873  8.5983747771748984
  3.4022365712745355  0.7327272787354061 10.9395066777004910
  0.1284905626901889  3.2130751243164286 11.4674770054005837
  9.4692946160078311  0.6684831044501056  4.9397028179041653
  6.9683097783947572  0.3536493633235402  1.9421251823891341
 10.0252091907840022  3.3796665318309445  1.5855593515595925
  9.7403876353296912  0.6520997949473628  8.4825797990228882
  6.8569206051934870  0.6047761247108588 11.2362051920467056
  9.4497089718894625  3.3648791689759889 10.8991165530513605
  0.4638173405497521  9.8913295465374631  4.6539832134586323
  0.6193849278550195  7.0748117371092789  1.9529043396011465
  3.0585590564535341  9.7181261895564592  2.1181110294722543
  0.5680155903995652  9.7878729762861187  8.4213020095027478
  0.4661199335515797  7.3615255078248820 11.1670166317613777
  2.9755683453787656  9.9379492334926756 11.3480801265723503
  9.9110223716195858  9.8219374881727948  8.7261136822165799
  7.3416535853469158  9.9625388276842788 11.4320507978022530
  9.6390255253670745  7.0956894496494991 11.0553917448964647
  9.7005090010169965  9.8944838946504756  4.4869303234109266
  6.7924475888462341  9.7427025627372927  2.0749097727910111
  9.9818096080339700  7.2023368802704857  1.6698095349115769
 10.9514273755432754  2.6712648941188060  3.9508145504924990
  2.4852872354826463 11.3797611924420714  4.1262561611763475
  2.4802830618046374  2.6733773694582399  0.5376772041299016
 11.0961102757954215  2.8372380774877564  9.0833118805798048
  2.7375595245540638 11.1589594210451839  9.0048858173483470
  7.4307413483789047 11.1282939510278887  4.2808073075218047
  7.6635310829540559  2.6514807564905638  0.7011648214581238
  7.6139996778015631 11.0580987099477106  9.1187929443460316
 11.1202917405826920  7.7274715443953532  4.0647850685762048
  2.7766710308738967  7.5398901150360382  0.5024857444223920
 11.1593820866504405  7.5294634764742918  8.8487924241913642
  7.5198032525534684  7.6054611537655834  0.5410351967402788
 10.9039626766325206  1.4885280740280935  5.0660554287842539
  3.3701596307062407 11.1450134722360676  2.7943834463580237
  1.2534552904545186  3.6710492216604873  0.5055155343984156
 11.1239324099422916  1.5115009030166311  8.1494425947320988
  3.5901584723524507 11.1446366633725074 10.4233281481635895
  6.4812236466606254 11.0832993061070493  2.9402179084638131
  8.9109583615207146  3.6636507389751438  0.4524372149731093
  6.7569458806648210 11.1400501386671156 10.4985659859730660
  1.1616446195412093 11.3246994768440636  5.0324675742515179
 11.0880193716849398  3.7437185823693873  2.7132953451441599
  3.4857600291625204  1.3901616486185380  0.5233075599498916
  1.3719412002495119 11.1630904703557068  8.1446835486536440
 10.9878559456673077  3.6696938911265673 10.4136024882157017
 11.1583678225001499  6.8030297653833038  2.7372531159067934
  3.5144808007766777  9.0052433252301469  0.6790507439822007
 11.1015127320811331  6.8606334869724428 10.3595636791202281
 11.1604184344596824  8.9501088226818144  8.0711012270207085
  8.9075248055610547  6.7547296482922352  0.5054676891209593
 11.0203542801423193  9.0921300432531460  4.9759586053804314
  1.3741241908130073  6.8116573208281093  0.4908196041487433
  9.0189709720915374 11.1187001582133895  8.2902291306602649
  6.6983815910303672  8.9647971860380373  0.6344199101899910
  8.7973029736776969 11.1160900573797559  5.1157939051888155
  6.6184494574700983  1.3762188423660058  0.6825815767879801
  7.3448707198256695  6.4624106264323400  3.5665292884684701
  5.5404031029243583  2.4284154960354472  3.3803389417850989
  7.9690103007710462  3.8758577670196015  3.4011866478954547
  3.9725568219250911  4.7485673576270448  3.7508978234850288
  6.2280339097513124  4.2905931410575580  5.2643557555553357
  5.9256729403747599  4.6872275697624080  1.9554513366355613
  5.0487553509923062  6.7971501643744530  5.1818677011769205
  4.7309631676351618  7.1211346077639686  2.5799674586133730
