 O Si Au 
 1.0000000000000000
    13.7065166200000004   -0.0000588000000000    0.0000243500000000
    -6.8533092299999998   11.8701637400000006   -0.0000225700000000
     0.0000263400000000   -0.0000129700000000   14.8090446000000000
 O   Si  Au 
  72  36   8
Cartesian
 11.6753427029918253  1.2608358226960374  2.0332786550250304
  4.8804039746921148  5.0314037711360164  6.5024399801078614
 -1.9762087713442722  9.0194760717731430 11.8983827075723294
  6.8511850743901865  9.6166314926482297  2.2011144025751337
  6.8550875500474229  1.7292074229617909  6.3105497434185498
 -0.0855169666931785  5.6841729014070559 11.9243751582328752
  1.8505821755254159  1.0943357104466380  1.8997273032144004
  8.8591051839022636  5.0692031849674644  7.0278012785254589
  1.9509547323130463  8.9517288317865997 11.7625058007005929
 -5.0930503162143763 10.7346939618173991 13.0957384597607085
  8.8292931250711231  2.8317329517838088  3.1102265233756872
  2.1313209162747668  6.8190211376785337  8.2411760450127591
 -0.0684938675717324  2.2381133838903398 13.1781433172623714
  6.8870299781254474  6.3189936438249923  3.0897524384954265
  0.0748731317689761 10.0757839611790825  8.1467449980384234
  4.9081594251735696 10.7444061407698950 13.1304197493345107
  4.9211469519200994  2.9010964888224926  3.4915459021881432
 -2.1928642646647654  6.7903919436767772  8.5192400398772303
 11.2808502886694342  3.7714686097024388  2.7216850044204595
  4.4213205678075056  7.5747139377957859  7.5436205825293987
 -2.6234716273054932 11.4019077623626011 12.4305442661367600
  4.7973750313668209  7.8086827995566290  2.4860008884095701
  5.0797804599870826  0.0077352177424365  7.5949556388913084
 -2.1389311869416026  3.9595377677031194 12.5522768078095641
  4.4274289417091870  0.5131863363320849  2.4934893340565112
 -2.3986609387374598  4.2247906757859397  7.5473770441265691
  4.3918145503982036  8.1496775335568579 12.5142198683862578
  9.2770618779983529  0.2278145131992944  2.6203502541353738
  2.3334691514492771  4.3171830685119312  7.5272244847290048
 -4.3049879373584750  8.2197812538043387 12.6770298022976569
  2.4871476812619466  3.7011741012261927  2.4792216891872356
  9.1948419015064076  7.7249910981649670  7.5260963552091225
  2.4268130908841097 11.4380171469635528 12.5399867148019233
  8.8970772016164634  7.9381253604100070  2.6757440552233542
  1.8275904390367665 11.7948424810304520  7.3935784421353077
  1.9229744117486960  3.8084624720217288 12.2414800730907576
 -0.0076674115883248  2.9962318896556774  2.0709917509793918
  6.8130149758764222  6.6689288752127078  7.1216222027397462
  0.0454848076070707 10.6543166612119631 11.9057831699976848
  4.4742987680135204 10.5217197351662595  2.1932808821304186
  4.1792296828443911  2.4463843140444994  6.9570998443595240
 -2.7097291125503093  6.3858432134647298 11.6734312134077101
 -4.2965321281392850 10.4405286468829210  2.4196109558420824
  9.2739361562984826  2.5261812947810700  7.3436984903555240
  2.4869306212017315  6.4434082584034904 11.9730480999041315
  6.8658957224773252  8.8805631133811769 13.0209944610647579
  6.8699687967129766  1.0976011217767694  3.4074474175801837
 -0.0440856158817369  5.3965048956198398  7.9814371485676592
  2.4959668925952712  1.4260043834563738 13.0746874155260890
  9.3510762381872876  5.4288014341024144  3.2541105938170749
  2.6617554837004165  9.4280262460629150  8.0499520256458315
 11.1615160304621721  1.4833295687393886 13.0126017717991225
  4.2303284919952846  5.4176739557490121  3.1941796692683107
 -2.5955400134876809  9.4381514300650924  7.9609551280691031
 -1.8233679134051828  3.1717570359298684  0.2057936469847201
  5.1985841644481461  7.0939581134348604  5.0374032070709065
 -1.6811917346500165 10.8400102272843757 10.0249197636023268
  5.1467560785721806  8.9603606963184603  0.1500803010776133
  4.8662575448885681  0.7086820363906094  5.1686868346041894
 -1.6663247713501814  4.6353470647182506 10.0401749853263418
 -3.5138551550490962 11.6793681995334762  0.1622155766611902
 10.2784742048942999  3.8888163184865920  5.1514298727953118
  3.6335457731268166  8.0370998362584931 10.0366946321380652
  3.3461579612481773 11.6994442959898990  0.1501352725959559
  2.9169213150843767  3.9398832767326133  5.0472754019441899
 -3.7356320248365558  8.3008277557371635 10.0753346931602188
  1.6917604303873277  3.1461441091021300  0.0944384162684951
  8.6343825926389268  7.0592526801427544  5.1603211534293969
  1.8260132129793811 11.0192480163079178  9.9829057655816413
 -5.0171934848334345  8.9469134145807363  0.2877533469686859
  8.9819494411455700  0.9817911485603151  5.0759793658049253
  1.6458151338981020  4.9395352736935232  9.9542871077242605
 -1.5806975165429602  2.8092134231443628  1.7674377667339991
  5.2312085612024619  6.5904136342452055  6.6021355033970792
 -1.5487146754064463 10.5424095072672994 11.6259980432221912
  5.2930881792286000  9.2383413321474990  1.7219697705378039
  5.2693180771255168  1.2840429590752989  6.6268511821736897
 -1.5986066803981520  5.1703472253551173 11.5715814933696741
 -3.8148833034140264 11.8609182440159557  1.7499979948479998
  9.9434959986374398  3.8848032849485614  6.7677113628697407
  3.1528362873370743  7.8992105357484235 11.5823005556545358
 10.6149209267594316  0.0290620446089145  1.7681706280440939
  3.6226067619165061  3.9355442796632776  6.5918736355056620
 -3.1859743232526783  7.9373078901929732 11.5490262218988295
  1.5311077340242052  2.6835926742473757  1.6455120995908812
  8.3465360284128334  6.6190844577728605  6.7280455847547556
  1.5920643988724648 10.5356225375923334 11.5375050744850611
  8.3609115896040631  9.2524089770256470  1.8832365223645049
  8.3658726110635016  1.2715849220101023  6.6103223958894164
  1.4427199934948947  5.2598674255716045 11.5385807155398421
  8.3753028387791133  9.2107531975827559 13.5093898146159805
  8.4728177699570129  1.3052277162725119  3.5287995412407369
  1.5199633278394975  5.3636502836808964  8.4287154566945475
  1.5040734500129749  2.6550994058710935 13.3887130334312765
  8.4097084247610372  6.6674129899016235  3.5811181978256119
  1.5647180179862841 10.6248286119595807  8.4222130162956539
 10.6020803500169603  0.0068516690997222 13.4067242083846310
  3.6255695750289645  3.9351662523083726  3.5540364189497584
 -3.2319561611779708  8.0600268094867662  8.5097763239192492
 -3.9117828802199717 11.7455783629296295 13.3852296906168711
  9.9111694387321325  3.9496147555081542  3.6021646762554127
  3.1327401433327924  7.9267004886400425  8.5320956482221213
  5.3252207885223894  9.1629548041340314 13.3754305578168520
  5.2844962319664539  1.2787445202363543  3.6685929103228969
 -1.6124053190297480  5.2448189184845839  8.5066021645465142
 12.0915536151001870  2.7450664498906514 13.4696199498808511
  5.3233624043096350  6.6113140468423985  3.4916183013886992
 -1.4770688075171847 10.5369016315254473  8.4456486300056959
  6.5217034010922239  3.9838797433836266  8.4749975952714127
  6.4586146782309095  1.8423555660547648 12.0422075011480505
  6.9709201872690105  1.4400462492242450  9.2135681038913368
  6.0267474108194961  4.6117907316993545 11.8565328021058640
  8.2154592621673839  3.3745059678848510 10.6289469087909261
  4.7937205879163836  2.8671296270787385 10.2118913297348435
  7.4696005318099905  6.0175794229776471  9.9208277727745511
  4.7561463753121984  5.5779053165482191  9.5884777217457717
