 O Si Au 
 1.0000000000000000
    13.7065166200000004   -0.0000588000000000    0.0000243500000000
    -6.8533092299999998   11.8701637400000006   -0.0000225700000000
     0.0000263400000000   -0.0000129700000000   14.8090446000000000
 O   Si  Au 
  72  36   8
Cartesian
 11.7118561673711703  1.1300068030012183  1.6732691831516580
  5.0300906753129464  4.9701942881369048  6.5233639987474019
 -2.0869836740185894  9.0785648653446387 11.9250722077535887
  6.7703733090055689  9.4985615898729048  2.1125057768575282
  6.7050825280855708  1.6477115673579783  6.5304419432217546
  0.0373727206066821  5.6672691994118720 11.7714931827915716
  1.9891257487321681  1.3680281456231425  1.8787080922095476
  8.5522739743357779  4.9266525139944557  6.8727777061285966
  1.7953081578466128  8.9877716426761456 11.6002866257178567
 -4.9793045196767389 10.7195217078168561 13.1785581089541566
  8.4917741904148816  2.9666095527476899  3.2007866675506400
  1.7726527887532157  6.8750532609307022  8.6598024665883031
 -0.0691666611483298  2.4173882252404661 12.9503191879522301
  6.8771398740811227  6.2202887418849873  3.2587165979071724
 -0.1745256493243060 10.0111313146804015  8.2177496858270125
  4.9555500377624595 10.8699881193867967 13.0416460171534183
  4.8097184231737362  2.8718739578529284  2.8640725896220300
 -1.8340508396353949  6.9645280666003577  8.3137001673837414
 11.0188290443463615  3.4485547088523552  2.5964559864077952
  4.2324683070815672  7.4580843977476272  7.3957002071771827
 -2.5875960071998558 11.5725744548663680 12.4829622746804230
  4.7399582633679547  7.9608441260619029  2.5262904360761684
 -2.0748261164295920 11.8270436380655415  7.4265762508109541
 -2.1028699511539188  3.9491084627062381 12.3386035443629591
  4.2553804771929800  0.1886334413485507  2.7019121025061863
 11.1828900397106423  4.3656439381738821  7.4409457873446962
  4.1717018207347909  8.2278211627248723 12.5956045867841411
  9.2230325518891458  0.5618019625938051  2.3746025078719240
  2.4785653543816504  4.5640462018073329  7.4163804564772668
 -4.5150943931955041  8.1269385604921016 12.4438714694479096
  2.3091342761150555  3.8440278916235702  2.6195517544714253
  9.3324210279956468  7.5133592986026247  7.5359501308668060
  2.4152062514983008 11.5352084913597359 12.3370347245358172
  8.7406100023930797  7.9884341720900816  2.6547499873030729
  1.6975913638152618 11.7337447695029429  7.3452077784974668
  2.0871034523103025  3.9812632492026392 12.3967567482363581
 -0.0931131982198398  3.0042549989506382  2.2563750628106196
  6.7785400940875755  7.0252852033605970  6.9536540914028366
 -0.1057852873089440 10.8151616002990316 11.8456091694847991
  4.2392681970913442 10.4116042992376219  2.1225506388382200
  4.2119646065037601  2.4952344086134626  7.2249252816764429
 -2.4727947140912296  6.5059026602889647 11.9565141174198963
 -4.5074908133398193 10.5404540323076770  1.9813415575213986
  9.3413453190252138  2.4105878467729371  7.0841715375369674
  2.5234103684210640  6.4689936000112889 11.6825241572535692
  6.7467229602658056  9.0671550310236277 12.7309060791702624
  6.7194285724651763  1.1316373087132723  3.1948028642016522
 -0.0705952969434581  5.1325233170009881  7.9748616725727235
  2.3808850933164898  1.4511205026533978 13.1153825917369797
  9.4658742019294095  5.4273944719865383  3.0927985417913177
  2.3426712764834439  9.3060316162651002  8.0279851616727989
 11.0885478699222944  1.4788430711305200 13.0337913156546605
  4.2904812994927086  5.4052217267718641  3.1514771664796846
 -2.6925028915555473  9.4748738081484056  7.9156020764760004
 -1.6689964647417255  3.2266400665052712  0.0815939702780672
  5.0774415934715389  7.1563870594358550  4.9618415642021825
 -2.0184866714636689 10.8630030617675892 10.0185166019123386
  5.1003611512040683  8.9142505978438997  0.0698724002159247
  4.6171613445127493  1.1710968727630535  5.0519726486512440
 -1.8768234150833514  4.9452582671570005  9.9442429780517223
  3.6614412469250373  0.0700303502573202  0.0913044994489017
 10.1753460909897253  3.7203806793010048  5.0870648422721247
  3.7863056949268321  8.1812275011016116  9.9445435721052924
  3.0990098992188306 11.7305936588123156  0.0125977297073523
  3.2171198089297532  3.6786530997950577  5.0402645256715175
 -3.6123689337760903  7.8986778100629778 10.0166160696578075
  1.5268552076130886  3.2429934251353520  0.0215662841920399
  8.6829847538059326  6.9458649743583978  5.0897867481812682
  1.7468553698366356 10.9173008222816268  9.9089397196219338
  8.3349496237306475  8.7945275432963115  0.1390548528791317
  8.7325499023925754  0.9491937328284213  4.9524419012342715
  1.5431339514192084  4.5762735661412854  9.8995282834782685
 12.1310581999578080  2.6799974416601806  1.6408095142007584
  5.2384577020638083  6.5947757469984012  6.4800947682690229
 -1.6806487935952272 10.5598491388668361 11.5600631881126912
  5.2301414934625479  9.2464311769366798  1.6326810347493357
  5.1129100814903747  1.2906048943290365  6.5725947056831000
 -1.5586559317737585  5.1875571410097283 11.5098481216814008
  3.0224778000283390  0.0950583799302764  1.6288239646211338
  9.8103374487570711  3.8844061974741924  6.6426992438537651
  3.0569208914222270  7.9559530708068920 11.4095307648332582
 10.4671739299305795  0.0172513760198051  1.5472742239448076
  3.7427207051758660  3.9338259037741938  6.6087348362154277
 -3.1164887900446305  7.9007712073542979 11.5405215430236527
  1.4263616133485106  2.8817147218823780  1.6057217623433291
  8.3446418957184694  6.6011026891324827  6.6682807358447862
  1.4496143916241124 10.5866035524710753 11.4507160747153538
  8.3386066841652529  9.1684553591806424  1.6713026899944736
  8.2976225238734909  1.2724812358706585  6.5380091167133143
  1.5427797936610361  5.1949892346831676 11.4022337803009766
  8.3089380072806023  9.1413780364169508 13.3406436560630723
  8.3077901083775885  1.3651220110670399  3.4215895615046730
  1.4700221113802245  5.2980519584528656  8.4544787203090639
  1.5273009165163798  2.7669496354577250 13.3073368323979544
  8.4274782687193284  6.6376773253370356  3.5265415948274201
  1.3221004253345194 10.5486304103782125  8.4031580024117645
 10.5612238134558911  0.0196499485817137 13.3137024437538081
  3.6710126151629767  3.9457457617945804  3.4500190939597233
 -3.1138485653708474  7.9927479408411566  8.4911102362107034
 -3.8688959809881003 11.8484128361549441 13.3810279065279456
  9.7948333637087508  3.8826630027095406  3.5406695262400114
  3.0324675597425226  7.9149348380200202  8.4508213703582094
  5.2051812734896572  9.2199048472418301 13.3001588827989821
  5.0992974288947828  1.3455638794077431  3.4926788438040637
 -1.6438418668100252  5.3798868037608312  8.3887761965048497
 12.0946958348767399  2.7369109412594907 13.3348307042843768
  5.2851263829336066  6.7078363831673444  3.4274376748146564
 -1.6778827785781441 10.6247466090141760  8.4253941622089439
  6.6587602183066945  3.8550011698253481  8.6332792416584301
  6.7108803215954822  1.9488800920759239 12.1148001636522782
  7.2727368086326578  1.4005505850668494  9.5513280326421963
  6.0206127611223303  4.5858953293334208 11.7420232093295915
  8.3490905587383715  3.7118007577379672 10.7238374330834283
  4.8913841629712085  2.5202132024909116 10.1367712993098849
  7.3188427227486841  6.1564644366069921 10.1956959868787074
  4.6341710242941989  5.3925019917749770  9.6629676060240719
