Ag Ir  O 
 1.0000000000000000
     7.5548700000000002    0.0000000000000000   -0.0304030000000000
    10.6454979999999999   10.5566980000000008    1.4189520000000000
     0.0000000000000000    0.0000000000000000   32.1594449999999981
 Ag  Ir  O  
  12  12  44
Cartesian
  9.4607378617442581  7.4691209952813464 21.7085435148409971
  5.5393896718645541  3.6750191878909684 20.1576787859467537
 12.7789603098794018 10.9522492588826239 20.4912428409946124
  9.9058444125231802  7.5318681144818092 18.7827719857292017
  6.7426753736826708  3.6521856827530721 17.4022970721296275
 14.2209211468226222 10.6698224360127281 17.7128574874788711
 11.4412250445692401  7.3255012714626533 15.7586757234824972
  8.1461989559993668  3.6974664801511121 14.4235185748192478
 15.5327584017601943 10.3870236357491361 14.6697350596720764
 13.2512372619654055  6.5905248206016580 12.6610136396444961
  9.1646091276628603  3.6125244000936512 11.6972046344049332
 16.4866258430397323 10.8090524963206303 12.0718879476339556
 12.4177254138812536  7.0735992871761875 21.6217360364205646
  8.4690345082189165  4.4839902437007755 19.5563584890667990
  6.0077148465182209  0.2219943883449489 19.0726493046709145
 13.6499352571195374  7.0104430623440583 18.7061790272528299
 10.4876478010669985  3.8824883872187810 17.2680101321991586
  7.3153397170345231  0.3003384652435780 16.1212807213046432
  7.5243664383828195  7.0839691223063532 15.8976306097307365
  4.3702612280441775  3.5476191199496379 14.5194772869124460
  1.2464101293895744  0.2659354576247636 13.3620247314416591
  9.0939519245809670  7.1270793426755841 13.0558199385358105
  6.4313963941950512  2.7658513724317570 12.2688671678321395
  2.7193092091087046 -0.4074137610879580 10.6772929733922304
 16.0896235339242608  9.2491269098547839 21.3241102364915491
 12.7619574377950897  5.8552751492878192 20.1689655354329105
  9.5378408129307406  2.9619845309997337 18.7375475747984090
  5.6347166820690644  1.5925055682211295 20.2279465612221969
 13.3235086592214511  8.1545127048106512 20.2035678965901297
 12.6308316411368224  8.3237118326022301 22.8059687088007408
  7.9634575792856888  3.6724766341415780 21.0142002224466360
  7.7547438683092995  6.2706898426035318 19.6276267109893041
 10.8305650605300610 10.6242795719966576 21.1922754908123849
  9.5911841172191714  9.6064561551245848 18.9398004249798220
  6.7203246326206472  5.8578994462854199 17.1737846588369081
  3.4657561922216309  2.5200582784483938 16.0275336828409962
  9.8588153226274962  5.3321031025103096 18.5834985704689792
  6.7733429009797890  1.4584454380552268 17.6237909535513744
 14.5844571002633625  8.2163217398656041 17.4460348364942028
 12.0120389709247171  7.1739382021609392 17.8950755349188739
  8.8716083748042021  4.1642181231230602 16.4383265600518591
 14.8674394625707045 10.9852258550257353 19.7435295976131790
  9.2393549271304956  7.0133721860031688 16.5092003933765454
  4.5543065713265660  4.0138008447281157 18.1091566640958064
 12.0301492537778767 10.4088424188040580 18.3169011795398795
 10.8683283223489617  9.6738377980913803 15.9550275779203190
  8.0597561008958305  5.9345514687867942 14.2259824150369099
  5.0221995631606173  2.0429472191092048 13.2972292348947949
 11.3377369544207411  4.9369224637623832 15.7010555654368353
  8.1463771141994297  1.5103732291071859 14.8074794815292670
 15.8488399801552777  8.3241474371947639 14.3915522122397768
 13.4968360217142447  7.3414155803359238 14.9676852124294140
 10.3638754259001011  3.4492779137364309 13.5415036793850394
 16.2769363363226951 10.8642717830209978 16.8106341494332092
 10.7700557951592302  7.0164855075165180 13.6486987382679814
  5.9641384720341870  3.2742875293936260 15.3662975848928376
 13.5014553771831434 10.6560622437520855 15.6576069715688231
 12.1931177677825868  9.4851820115678684 13.4921174906987389
  8.9417126850828570  5.8811573546758309 11.7242241604795012
  5.3954066705050741  4.4076827540411783 12.9916115356151920
  2.2618387810950100  1.1379257555494926 11.7991747657675070
  8.9383514811225222  8.5134469368401735 11.8956908735615841
 13.3091688129485686  8.4638988258592409 11.5090593457868557
 17.8520238254172980 11.5437760511706404 13.6796117609511310
  7.0496475730565535  3.6638314907549394 10.8597305872152319
 14.5293545693983486 11.1166231664308039 11.1403680677972670
 14.5951173506618606 16.1729092438883768 23.8841636208549204
 13.2207920601762989 16.2009572858293751 23.9767749285800740
