 C  O  H Ga  N 
 1.0000000000000000
    13.8351953600000002    0.0002713800000000    0.0004054500000000
    -3.4584020099999999   15.9703069499999994    0.0036034200000000
     0.0003653600000000    0.0039509800000000   16.9322510299999998
 C   O   H   Ga  N  
  96  20  56   4   8
Cartesian
  2.9429331935737180 11.9489917836742112 12.4522694513369441
  0.5170981778135745  4.0255191871453739  4.4842979333629662
  2.9422980297850923 11.9466523632840307  4.4866440501197564
  0.5177120209457095  4.0277703180143618 12.4493548978382833
  2.9508811236830348  4.0253064350632828 12.4489589680968091
  0.5091526829068546 11.9484144714859113  4.4875659027719017
  0.5099848023417461 11.9500884458365739 12.4512905103174347
  2.9500319120343454  4.0238064285342148  4.4847675782717777
  2.9461877522027740 12.8924260269365920 13.4727079451399092
  0.5133907925335217  3.0820581043364630  3.4638575575179744
  2.9458470381737061 12.8900016630266467  3.4661839061150115
  0.5136323288938692  3.0844431990183523 13.4697821828736295
  2.9527942094369610  3.0817791514465585 13.4693277967083134
  0.5067360633855201 12.8919037261328686  3.4671559052166594
  2.9522522476130852  3.0801773047383274  3.4643735621768035
  0.5072996044939305 12.8936651949505485 13.4717584945746029
  1.7300661142927380  9.1175251361354643 11.3530191234017259
  1.7315104631221299  6.8567125517077070  5.5832903650098640
  1.7281361491820670  9.1160660272340515  5.5846110481370781
  1.7334090216488340  6.8581531318692077 11.3516877677384453
  1.7313668736381280  8.6772393264815477 12.7230926515244249
  1.7307392802451309  7.2969691514158495  4.2132402121334485
  1.7284394158171248  8.6772396692814784  4.2139853362076103
  1.7335491381985559  7.2969585803701040 12.7223265256415985
  1.7263478310087161 10.8540756307408834  9.5597457634702732
  1.7332464738967870  5.1201401413743080  7.3765746677370725
  1.7259821973257916 10.8529805673549564  7.3786224427701086
  1.7336678283249884  5.1211759662328245  9.5577428467906742
  1.7269797693837872 12.2602556823308184  9.1516325860725090
  1.7315410971779530  3.7139528826526655  7.7846903518474875
  1.7268030776333985 12.2596328333440745  7.7855166555152335
  1.7317744774628510  3.7145394769978606  9.1507934071454553
  1.7272218601869207 10.4360572395056774 10.8953170268919717
  1.7333839017801860  5.5381797929293759  6.0410029309166404
  1.7260987396706113 10.4342664315967912  6.0433102120958022
  1.7345415752656981  5.5399075308231396 10.8930623913922329
  1.7264563946863947 11.4749863785844290 11.9484539198060808
  1.7338187752799867  4.4991985978516169  4.9879256177603377
  1.7255527503086265 11.4731993716626679  4.9903168227487695
  1.7347122829612722  4.5009295374963152 11.9460152912139854
  1.7267252664208994 13.3564644833728803 13.9834334953090274
  1.7326148150038712  2.6176264098853923  2.9529488715155483
  1.7264267205047461 13.3541685013172611  2.9556586012163533
  1.7328311411700550  2.6199212283486739 13.9805349683405140
  1.7271011196060060 14.3360004879136280 15.0962219987266977
  1.7317373677871881  1.6382056811852170  1.8400728404089910
  1.7268943796609855 14.3329623530269838  1.8426489839211300
  1.7316598596206640  1.6411731969041785 15.0935406812305537
  9.8633594033303638 11.9583868354714404 12.4511159327558438
  7.4356210113313370  4.0230315984644083  4.4824336651263170
  9.8621984239683798 11.9552037692942115  4.4892528357199808
  7.4352453889488723  4.0256500190300555 12.4515564577068574
  9.8675330129329115  4.0171152840829656 12.4483522347352071
  7.4297327056746321 11.9520464570233891  4.4850429259865194
  7.4310199016896030 11.9555603521252465 12.4547775678933785
  9.8677403284023342  4.0133919926582262  4.4852303089990979
  9.8669595105015286 12.9024627599595263 13.4714893963766187
  7.4295115093446480  3.0782663508796699  3.4627765408941649
  9.8659585796805018 12.8992628464558354  3.4690063782284244
  7.4297413733610584  3.0807648985089577 13.4710266674554742
  9.8681300016832498  3.0729034082916282 13.4683947508364650
  7.4274247697180868 12.8966191549270199  3.4653643175099451
  9.8676596200465223  3.0692050329405003  3.4650692531593235
  7.4286113495118657 12.9002864636479337 13.4744290151380763
  8.6426371446547794  9.1188187330817136 11.3593546613884566
  8.6469502659874742  6.8562469986187633  5.5776924063889046
  8.6427276745458617  9.1161816010275309  5.5796186967327710
  8.6456966810934208  6.8589438285270017 11.3573917771540955
  8.6414503714999817  8.6778858854409471 12.7286179276803058
  8.6440891740496859  7.2972569022687326  4.2084226051102158
  8.6413135188258963  8.6772483406685144  4.2095620026078437
  8.6434068433184770  7.2978976080980127 12.7274058675600212
  8.6528177918316143 10.8497585213914025  9.5608302243634355
  8.6594671536874301  5.1252064046137145  7.3762229034130122
  8.6520623847540516 10.8480601823802303  7.3787355184300765
  8.6588878477803348  5.1269374792726072  9.5584142609797826
  8.6615902189369809 12.2553359381006572  9.1517215293874017
  8.6649478857336319  3.7196369586675551  7.7854408922401088
  8.6610211237233479 12.2543357732893057  7.7859133281102659
  8.6647071740541701  3.7206494196386313  9.1513127379017973
  8.6468689606772653 10.4365780023367201 10.8988858632685748
  8.6542648529149613  5.5384529744063142  6.0381344431690582
  8.6460350145998497 10.4336377321047813  6.0410600225481037
  8.6530744716671784  5.5414595060474792 10.8960633573487176
  8.6469571149926505 11.4799434766091579 11.9495764228957189
  8.6530806060958749  4.4952845092819071  4.9872562877957396
  8.6456709396589826 11.4767996868725888  4.9903604155549059
  8.6524221800587267  4.4983175050585773 11.9468089949103256
  8.6480479400545160 13.3637505671476120 13.9852832949300119
  8.6472715938514142  2.6113270302314371  2.9514860853335021
  8.6470369314080529 13.3601143787716730  2.9549482514928482
  8.6479394496487973  2.6146305797871352 13.9819531131019072
  8.6478514960037351 14.3433091849381729 15.0978426934805992
  8.6457126279526584  1.6317217531269148  1.8389635368286983
  8.6470780361786144 14.3393230697440579  1.8423544046725755
  8.6467263282026590  1.6353664344409158 15.0944861259387029
  2.8743068427206673 14.6966627970871144 15.5213548419973737
  0.5842833889687334  1.2781761258762914  1.4149936425592500
  2.8741185449749880 14.6931610883227002  1.4172377159042600
  0.5841350489283462  1.2819961089148613 15.5190735816708028
  0.5800396165196636 14.6948131552448746  1.4174009892897497
  2.8781107480483210  1.2783111401040572 15.5187775927993599
  0.5803506997226497 14.6981657226350464 15.5216017296986539
  2.8782464838732662  1.2754341746563638  1.4145573344016928
  5.1886226569089891  0.8983863164919538 16.9316095063014664
 -1.7307166230051423 15.0793963154634696 16.9356256817692241
  9.7941019299792647 14.7076407127289652 15.5217949968474542
  7.4990090513991774  1.2686004425198218  1.4149732340424195
  9.7934304278732167 14.7039545310363771  1.4190225731054529
  7.4999413264120252  1.2716432935204980 15.5175350483182104
  7.4996086855966935 14.6978483504691031  1.4164284999046315
  9.7936908829477378  1.2758481701527538 15.5206871039521754
  7.5003635490426026 14.7025034065808562 15.5230940444676015
  9.7927437032233922  1.2712038908275107  1.4136817259945296
 12.1047125083007856  0.9014829684849480  0.0015568823368614
  5.1879573230429221 15.0729466108497494 16.9350067124453503
  3.8738796625910421 11.5610166981750186 12.0383097263768963
 -0.4136206222863349  4.4137833797715560  4.8984243454013914
  3.8730572817207696 11.5584062236574496  4.9006960079054043
 -0.4128123392579406  4.4163634560985772 12.0351213443875356
  3.8822241152554473  4.4119333892781061 12.0346948521273571
 -0.4219730635782090 11.5615095296577390  4.9020543129338181
 -0.4211070861056180 11.5629990323558758 12.0368783537603452
  3.8813158569735369  4.4106132910536004  4.8990134002148107
  3.8746998422645724 13.2793141245480442 13.8896924961632759
 -0.4153288144071528  2.6954645367445460  3.0470461163345739
  3.8743564162009414 13.2767075644245356  3.0489652171109967
 -0.4150564155680063  2.6981010758105390 13.8869005427673233
  3.8804847584583850  2.6928984906926439 13.8862974520429105
 -0.4211987866162558 13.2803965008453329  3.0503539513413704
 -0.4208508120142587 13.2818854604551824 13.8883699487045735
  3.8802685581878045  2.6916633305456674  3.0477154722957271
  1.7303464682756169  9.3435584818911295 13.5787973861674978
  1.7316102652988012  6.6306621251473663  3.3575122787432385
  1.7270850135871503  9.3443577110600167  3.3588629768731701
  1.7347997071588492  6.6298402158435401 13.5774432942162022
  1.7274799313356459 13.1149603152194310  9.8213228987938077
  1.7306176115962286  2.8592142202951303  7.1149817319981343
  1.7271701059385463 13.1138339300271269  7.1151558951516405
  1.7310186456438150  2.8603206510246810  9.8211775185090033
  5.1890555442492081  1.8607063810196547  0.0021140244194635
 -1.7325379841011666 14.1091830239933937  0.0073015682297161
 10.7955153596393743 11.5746203803513676 12.0361890334826942
  6.5044934970268988  4.4114947961192419  4.8952862981784495
 10.7941397947800581 11.5715572775630129  4.9046621683920488
  6.5038959846174169  4.4136752595997946 12.0387995791957749
 10.8009740515095061  4.3985439183491284 12.0340693648065002
  6.4969798007481518 11.5661697919475888  4.8966919886658804
  6.4982605130445927 11.5697908426140348 12.0430399482461468
 10.8015673395144454  4.3942909061650628  4.8991399150373995
 10.7951510838712110 13.2918177761576288 13.8877090032514428
  6.5002679772050111  2.6928997544696611  3.0451847922593771
 10.7941527124785743 13.2887512037570890  3.0529158439894375
  6.5008848333960243  2.6948170898031507 13.8888691369191335
 10.7950823765563317  2.6814591384700486 13.8852351047407900
  6.4998093887285666 13.2845336901363762  3.0466868228354103
  6.5008682717007069 13.2881890230772139 13.8928223575036238
 10.7944703833243771  2.6774464277382730  3.0481274373730649
  8.6410934186345010  9.3437786048341032 13.5841510591461070
  8.6457869304898995  6.6314419662128099  3.3528094414325076
  8.6402425116924668  9.3444781607901017  3.3550390791609246
  8.6448774136992217  6.6307527657146528 13.5819609937027348
  8.6674789038691102 13.1086368422885631  9.8226157266696319
  8.6685046958817100  2.8662554479119087  7.1146251800182352
  8.6663678403907127 13.1067034864944532  7.1138314637752051
  8.6679241605531612  2.8681502483779902  9.8232656295995326
 12.1031905161355748  1.8718315974891868 16.9325086452010325
  5.1887389088488227 14.1026233458041137  0.0080997096748471
  8.6457914467140906  7.9914929690721106  9.5526090854481858
  8.6472931241405959  7.9837515273136441  7.3843849590040662
  1.7308610810225589  7.9892935191007215  9.5464143138358839
  1.7301362144608181  7.9848681339311369  7.3898760065210869
 -0.0005767729827268 15.9695123880306262  0.0037575518559524
 -0.0002258029242709  0.0059815074192527  0.0005472767033848
  6.9169827664534047 15.9698179047523414  0.0042276753635257
  3.4583038696118504 15.9695485682340905 16.9356509947973208
  1.7315239832580938  7.9882601810370000 10.5652319846160978
  1.7299548826777702  7.9859706350207409  6.3710663240532668
  1.7257206441884887 10.0171295068862225  8.4695393464681743
  1.7343665393072456  5.9570438024711025  8.4668186789258932
  8.6439564868093228  7.9895245365999870 10.5715123126251491
  8.6450327595942209  7.9855938761218459  6.3654941124458908
  8.6481379806175713 10.0122692660758901  8.4703697481913789
  8.6567163948242332  5.9627464682463565  8.4667199166299874
