 O Al Si Cu 
 1.0000000000000000
    18.2560000000000002    0.0000000000000000    0.0000000000000000
     0.0000000000000000   20.5339999999999989    0.0000000000000000
     0.0000000000000000    0.0000000000000000    7.5419999999999998
 O   Al  Si  Cu 
  97   2  46   2
Cartesian
  5.2474819480799946 20.4523185292885366  7.4573138877457072
 14.0176368321371356 10.2508557572142838  7.4472240319514285
 13.0274933311599845  0.1155798302485714  7.3917186144142768
  4.1748684881942753 10.1898549341342903  7.5193602922914211
  4.9551123430571371 20.5243652675399986  3.7927416471628588
 14.3847958807999916 10.3621038230914149  3.9899470009914273
 13.2600394010114417  0.0938669281514286  3.7998427264714310
  3.9584108399714313 10.3136703325028627  3.8873806374542834
  5.9448325916057234  1.8087294649571426  2.0911056806628587
 15.2544708537542970 11.6498107685542731  1.8043831408314270
 12.0222319384285612  1.5072994936000026  1.8947733940885716
  3.0076147778114297 11.7154621917657078  1.8025303790228591
  5.8689609207542857 18.6873229366285685  5.5461007781999943
 15.0143444247771356  8.4459014083142865  5.7275929950200029
 12.3558922031314200 18.8350342000600079  5.5788554749057164
  3.0051154516914318  8.6055177835371417  5.7107182464942854
  6.8239833796799951  2.3466070822428531  7.2579633407685664
 15.9174257480171431 11.9724158933228590  6.8090393160885778
 11.4896974990571437  2.2808086054885748  6.9793559259400082
  2.3878875936171435 12.0230853027400038  6.8168456721628621
  6.8466794293885744 18.8538536285771521  3.0676335273828532
 16.2751302567200113  8.5638793536657172  3.3658344815942822
 11.4440200340285756 18.8089981155399713  3.1108741757057126
  1.9241170549771438  8.6918961176657099  3.3044684925142880
 11.2716811281885683 18.7186843991456904  0.4352003563114286
  2.3921354772628551  8.3164999986600030  0.6967428338257134
  7.0161715893657135 18.5114586546228566  0.3759235062971424
 15.8683143956171246  8.5026038999742912  0.6905115002685709
 11.1586800493142810  1.6032061466514265  4.3840865847028700
  2.0308879440057170 12.1482267704114228  4.1757356138657098
  6.8497854171485733  1.6387531864914293  4.6221701237199904
 16.2297763816971141 12.2838723133542889  4.1558977544028552
  3.9558587813257193  2.4841010666485741  0.0243307270028572
 13.5642684870057213 12.8706734056971168  0.1721940539600001
 13.9637711361942927  2.5289307806885746  0.3961390504228576
  4.8289296169257119 12.7441880877828559  0.1683071280371429
  4.3168941366685702 18.0350062023857305  3.4717386849600005
 13.7286756978742854  7.8726683046485730  3.4367758277171423
 14.0035532419771531 18.1194325017657398  3.6122290828999986
  4.3905007898228554  7.7343416502714311  3.6042838904485683
 13.8719699331599884 18.1563517550457156  0.1308433181571430
  4.8486081937199970  7.6624051316085797  7.3523637065971448
  4.4148348989942852 17.9704328327742786  0.1384162608685714
 13.3645334338514257  7.7166415017057171  0.1564287301028575
 13.4936644340114178  2.7528895688171438  3.7297677694200035
  4.5736962655257232 12.8399033410685792  3.6203183396971377
  4.3615278340114267  2.4979375192257156  4.1557101161485628
 13.6778039009999919 12.8612055158485674  3.5619485542171416
  6.0051841190857198  6.5071654553485736  1.9291157424914298
 15.0033848800114260 16.4443880029000020  1.8105089840342850
 12.6452238992571395  5.9204716129600037  2.0199478459771436
  3.2719052332057119 16.2455286778142991  1.8242168004628565
  5.9930168401485684 13.8599547758628621  5.6005482805057074
 15.0804989268342791  3.4709199000828583  5.7133105085657192
 12.3601723103428665 13.9275278237114417  5.5961544009171353
  3.1527174702971421  4.2634479999085686  5.6964833569085727
  4.6161416144228520  5.0306476183142879  0.2252281894542856
 13.6143023319885756 15.5239554890742788  7.2883741824599904
 13.7853664971542855  5.1297714126142777  7.3116969171942818
  4.5765163087828586 15.3566850546228508  7.2422542152457128
  4.6825874782742796 15.4702039049514273  3.9539219704200024
 13.8942496482514120  5.3403273213571421  4.2727879752114202
 13.6121309831942927 15.5140876595685864  3.8888427861285741
  4.5837063798800042  5.0525025601685707  3.5920281746599962
  6.9824970168800009  6.0730027490114118  7.1074933539171496
 15.9688575525371412 16.7248528571457236  6.8988768608142923
 11.3035584279542860  6.0761123671257051  7.2879150033857147
  2.2581095899257182 16.6203607010199832  6.9435255271342955
  6.8448003704114271 14.0996189236171503  3.1254874751514268
 15.8527019397885667  3.8727379316342843  3.2014251874714237
 11.4261433900056986 14.1910890070685660  3.1443856307685700
  2.2687495244285696  3.8177096609400003  3.1997480104514273
 11.3554120637371341 14.2944796912628611  0.4610680776971430
  2.0614162292914266  4.2864504872200033  0.5418766112714282
  6.9336958625428533 14.3407527166942934  0.4629552181342859
 16.1122168039314566  4.0608180040571362  0.5433070241571425
 11.5769239435828641  6.6389173200685709  4.3701808496457071
  2.2513029835771419 16.5584209012085815  4.2486241372628593
  6.5731167358285667  6.5496427665114236  4.5064387921428537
 16.0508071950742917 16.5233828851571083  4.2249533714571390
 18.2209419819771377  7.9608773532971435  1.6637604123228573
  9.1394681863142768 18.3199048652828473  1.9246197358114274
 18.2635592488971561 12.5420936784542825  5.8244328382485699
  9.0782010387485634  2.2307899037142871  5.9101901769314242
  1.9250886821657176  6.2602724149800029  2.3051838251285712
 11.0974111099771449 16.4964446188457252  1.8939253483600014
 16.1942280348171543  6.2461256069628632  2.0622589335714276
  7.1964520997085675 16.4622213324257167  2.0490520437171424
  1.9647600023028580 14.3439515566257256  5.6471542481714199
 10.7909876024400173  4.0995540954285632  5.1510816868714242
 16.2976929670742727 14.3692605890085776  5.7817603374257178
  7.2295320424057277  4.1150806443600025  5.3044971847857125
 18.1960846517943331  4.4632996629628554  2.1202743728171427
  9.1458154869428441 14.6416442562314373  1.8857808264257148
 18.2609043403828153 16.1910699381514043  5.6280524784085673
  9.0290341283485596  6.0013912170228538  5.3213102861885773
  8.6383033055200062  3.8997021305314257  2.3790571942628596
  5.3434837915199971  1.5464038228428580  0.3960970232714288
 10.7876845996799968  5.8319251271600052  5.6735409329514317
 14.6797146302057069 11.6943439212885796  0.2826310944142851
 12.6343313834343007  1.6000978585628585  0.3870165799571426
  3.6037134458057101 11.6869465882971344  0.2933915739714289
  5.5104752703200024 18.9998597454828229  3.9931401990457163
 14.8500641721885849  8.8055751536571325  4.1480945609800060
 12.7634370908742945 19.0833486018942864  4.0246508853314280
  3.3220800986514294  8.8343326160457334  4.1373227022000032
 12.6362072872342672 19.0833640374028874  7.1592772699285661
  3.5960986606285723  8.6958866853028507  7.2223572038942825
  5.6240387880285789 18.9293030006371126  7.1490362779371548
 14.5667986602799946  8.7164933476457112  7.2753110618828609
 12.5091421952057118  1.5010595760171410  3.4511096539285782
  3.3968374971371431 11.7600998449485736  3.3752823783514314
  5.5280234059485762  1.4966644441742847  3.6600309952085706
 14.8812206685200064 11.7871512714742916  3.3788801428657149
  5.5723691622800029  6.3254995281999928  0.3740819253828563
 14.6055758999200069 16.7048153453085604  0.2563969145171434
 12.7625594699428611  6.2230774572428667  0.4247370185342858
  3.6413716474742874 16.5545867010142764  0.2675555029685719
  5.5131818328171462 14.0797167034000150  4.0657950940514382
 14.5759862208971462  3.8722664647628520  4.2151103891314312
 12.7850294497942709 14.1248369461828567  4.0420047612142849
  3.5738143136971439  3.9196683829771382  4.1691824005485669
 12.7430648129485586 14.1563376519171555  7.1563534950971519
  3.4538002951371460  3.9793131771885779  7.2813938947742853
  5.5702303641714268 14.0810602091914294  7.1514083653942819
 14.7224108569257091  3.8131436702428605  7.2662571909799976
 12.9382580144000183  6.4473346259685798  3.5340488212685681
  3.6327231284742867 16.5670246264743284  3.3775617753571412
  5.3611464686342787  6.4590074280142815  3.4203232472685721
 14.6579868442342711 16.6462620315971144  3.3852066815485666
  1.5427302844571411  7.8089062540428493  1.9850746056428568
 10.7379464253771157 18.0788313934057356  1.8392946367371412
 16.6273399623314226  7.8154854484228578  1.9518977816142842
  7.5433375383314267 18.0355954405800212  1.8408850106971433
  1.5937698151028559 12.7673997212857060  5.6154985239457051
 10.6579305735485743  2.5384600552314325  5.6173483965114253
 16.6760820517314450 12.7944299591400181  5.6369970197885735
  7.4976655583771485  2.5767489896542837  5.7810759210028575
  1.5411765775828574  4.7005866352428614  2.0282931792542862
 10.7491959513314317 14.9054732708285904  1.8456881489571419
 16.5909844766057297  4.6663363028828444  1.9822671819914286
  7.5385869621599957 14.8825652780457194  1.8760850310142838
  1.6109951652971437 15.9297111179114275  5.6142282099600047
 16.6523286549943137 15.9509555433399903  5.6313621727628576
  7.4461279655542878  5.7227779675857100  5.5918240566085737
  7.4855608494799997  2.9298214142200036  1.4914497654285737
  9.3287927516457181  4.5152847892257109  3.8709980638285715
