Sc  H Pb  C  O 
 1.0000000000000000
     9.1291100000000007    0.0000000000000000    0.0000000000000000
    -0.0000000000000000    9.6828830000000004    3.2276280000000002
     0.0000000000000000    0.0000000000000000   38.7315340000000035
 Sc  H   Pb  C   O  
  34   8  10  16   1
Selective dynamics
Cartesian
  0.0000000000000000  6.4552585609610000 15.7077899758760005   F   F   F
  4.5645550000000004  6.4552585609610000 15.7077899758760005   F   F   F
  0.0000000000000000  3.2276244390389999 18.9354112983980016   F   F   F
  4.5645550000000004  3.2276244390389999 18.9354112983980016   F   F   F
  0.0000000000000000  0.0000000000000000 15.7078060029040021   F   F   F
  4.5645550000000004  0.0000000000000000 15.7078060029040021   F   F   F
  2.2822775000000002  8.0690659390389996 17.3216103755760003   F   F   F
  6.8468325000000005  8.0690659390389996 17.3216103755760003   F   F   F
  2.2822775000000002  4.8414415000000002 20.5492349257260045   F   F   F
  6.8468325000000005  4.8414415000000002 20.5492349257260045   F   F   F
  2.2822775000000002  1.6138170609610001 17.3215908986980018   F   F   F
  6.8468325000000005  1.6138170609610001 17.3215908986980018   F   F   F
  2.2822775000000002  4.8414415000000002 17.3216200029040017   F   F   F
  6.8468325000000005  4.8414415000000002 17.3216200029040017   F   F   F
  2.2822775000000002  1.6138170609610001 14.0939759758760008   F   F   F
  6.8468325000000005  1.6138170609610001 14.0939759758760008   F   F   F
  2.2822775000000002  8.0690659390389996 20.5492252983979995   F   F   F
  6.8468325000000005  8.0690659390389996 20.5492252983979995   F   F   F
  0.0000000000000000  6.4552585609610000 22.1630585530540003   F   F   F
  4.5645550000000004  6.4552585609610000 22.1630585530540003   F   F   F
  0.0000000000000000  3.2276244390389999 25.3906798755760015   T   T   T
  4.5645550000000004  3.2276244390389999 25.3906798755760015   T   T   T
  0.0000000000000000  0.0000000000000000 22.1630358485480023   F   F   F
  4.5645550000000004  0.0000000000000000 22.1630358485480023   F   F   F
  2.2822775000000002  8.0690659390389996 23.7768402212200023   F   F   F
  6.8468325000000005  8.0690659390389996 23.7768402212200023   F   F   F
  2.2822775000000002  1.6138170609610001 23.7768594758760017   T   T   T
  6.8468325000000005  1.6138170609610001 23.7768594758760017   T   T   T
  2.2822775000000002  4.8414415000000002 23.7768498485480038   F   F   F
  6.8468325000000005  4.8414415000000002 23.7768498485480038   F   F   F
  2.2822775000000002  1.6138170609610001 20.5492445530540024   F   F   F
  6.8468325000000005  1.6138170609610001 20.5492445530540024   F   F   F
  2.2822775000000002  8.0690659390389996 27.0044938755759993   T   T   T
  6.8468325000000005  8.0690659390389996 27.0044938755759993   T   T   T
  1.2909017995500001  0.4296004700610000 28.2158547462100024   T   T   T
  1.1659973165300002 -0.6484433087440000 26.8191988392420022   T   T   T
 -1.3953023015100001 -0.4325247007270000 26.8285428255360010   T   T   T
 -1.2726983542100001  0.6151632398730000 28.2625649794080012   T   T   T
 -2.1205005416900002  1.1677072753850000 26.8019342892220003   T   T   T
  2.6905039118700005  2.0001834584270002 26.8223264562020063   T   T   T
  2.5942009304800000  0.8569254626170000 25.4675683850160013   T   T   T
  3.4062991687499999  0.3862211542210000 26.9663238165780044   T   T   T
  0.0000000000000000  6.4552585609610000 18.9354048986980033   F   F   F
  4.5645550000000004  6.4552585609610000 18.9354048986980033   F   F   F
  0.0000000000000000  3.2276244390389999 15.7077963755760006   F   F   F
  4.5645550000000004  3.2276244390389999 15.7077963755760006   F   F   F
  0.0000000000000000  0.0000000000000000 18.9354209257260031   F   F   F
  4.5645550000000004  0.0000000000000000 18.9354209257260031   F   F   F
  0.0000000000000000  6.4552585609610000 25.3906734758759995   T   T   T
  4.5645550000000004  6.4552585609610000 25.3906734758759995   T   T   T
  0.0000000000000000  3.2276244390389999 22.1630262212200044   F   F   F
  4.5645550000000004  3.2276244390389999 22.1630262212200044   F   F   F
  2.2822775000000002  6.4552585609610000 15.7077899758760005   F   F   F
  6.8468325000000005  6.4552585609610000 15.7077899758760005   F   F   F
  2.2822775000000002  3.2276244390389999 18.9354112983980016   F   F   F
  6.8468325000000005  3.2276244390389999 18.9354112983980016   F   F   F
  2.2822775000000002  0.0000000000000000 15.7078060029040021   F   F   F
  6.8468325000000005  0.0000000000000000 15.7078060029040021   F   F   F
  2.2822775000000002  6.4552585609610000 22.1630585530540003   F   F   F
  6.8468325000000005  6.4552585609610000 22.1630585530540003   F   F   F
  2.2822775000000002  3.2276244390389999 25.3906798755760015   T   T   T
  6.8468325000000005  3.2276244390389999 25.3906798755760015   T   T   T
  2.2822775000000002  0.0000000000000000 22.1630358485480023   F   F   F
  6.8468325000000005  0.0000000000000000 22.1630358485480023   F   F   F
  0.0363977615700000  1.1870052612040001 26.6235788031120038   T   T   T
  1.2524956337800000  0.4027207868530001 27.1207851744540029   T   T   T
 -1.2586030083699999  0.5999223820310000 27.1685863460600032   T   T   T
  2.5590995025300001  0.9462597411750001 26.5577771503300006   T   T   T
  0.0000000000000000  1.1394719885570002 25.1998818478940017   T   T   T
