Cd  S  N  C  H 
 1.0000000000000000
    10.4879999999999995    0.0000000000000000    0.0000000000000000
     0.0000000000000000   10.2119999999999997    0.0000000000000000
    -0.5683692100000000    0.0000000000000000   11.2586626800000005
 Cd  S   N   C   H  
   8   8  24  16   8
Cartesian
  6.2677843575875176  1.4091864562799998  6.8558474628667838
  1.0237843575875183  6.5151864562799995  6.8558474628667838
  3.3676624370678629  1.4091869668799999 10.0321448683338144
  8.6116622216241705  6.5151868647599995 10.0321449809204406
  3.6518465316087898  8.8028135437199992  4.4028153297198438
  8.8958464267287898  3.6968136458399998  4.4028153297198438
  6.5519685683758295  8.8028131352400010  1.2265176990795588
  1.3079684578121367  3.6968130331199998  1.2265178116661857
  3.8290323731295741  1.5300703935600000  6.3187145676776444
  9.0730324723258811  6.6360703935599998  6.3187146802642715
  5.8064135964267329  1.5300702914400000 10.5692795649089817
  0.5624134858630414  6.6360702914400003 10.5692796774956097
  6.0905983119904255  8.6819297085600002  4.9399481123223552
  0.8465984168704257  3.5759296064399999  4.9399481123223552
  4.1132173041369580  8.6819296064400007  0.6893830025043912
  9.3572172984532660  3.5759297085599995  0.6893831150910180
  2.7104166592294070  9.2760884794800003  6.4121961446026994
  2.1187173073567034  8.4329364355199985  7.3245168806453496
  2.8247168241914293  0.0113751468000000  8.4175010984221430
  7.9544166535457155  4.1700885816000000  6.4121962571893265
  7.3627172024767029  3.3269364355200000  7.3245168806453496
  8.0687166087477369  5.1173750446799993  8.4175012110087692
  6.9250289078579765  9.2760881731199998 10.4757976502240489
  7.5167282710980645  8.4329362312799994  9.5634766890081444
  6.8107294656885706  0.0113753510400000  8.4704929215778577
  1.6810287972942843  4.1700881731199999 10.4757977628106733
  2.2727280670217569  3.3269362312800004  9.5634765764215164
  1.5667294656885702  5.1173754531600002  8.4704929215778577
  7.2092140315742839  0.9359115205199999  4.8464664228106740
  7.8009134883269882  1.7790635644800001  3.9341456867680238
  7.0949141755685705 10.2006249553200004  2.8411615815778588
  1.9652141307705921  6.0419114183999998  4.8464665353973011
  2.5569134826432962  6.8850635644800002  3.9341457993546505
  1.8509140706885701  5.0946248532000000  2.8411615815778588
  2.9946019983894074  0.9359117247600000  0.7828648046026992
  2.4029027286619353  1.7790637687199999  1.6951859909918570
  3.1089014348751216 10.2006244447200007  2.7881696458355147
  8.2386018821420244  6.0419117247599994  0.7828650297759530
  7.6469025132182420  6.8850637687200003  1.6951861035784836
  8.3529012137477370  5.0946245468400004  2.7881698710087686
  3.1309323093659946  0.1461682365600000  7.0913697917888658
  2.2053240089872923  9.0284424756000003  8.5113322568234100
  8.3749321988023020  5.2521682365600002  7.0913699043754939
  7.4493239097909854  3.9224423734799996  8.5113321442367837
  6.5045138756340055  0.1461682365600000  9.7966242282111349
  7.4301218784237832  9.0284424756000003  8.3766614254167102
  1.2605138699503136  5.2521682365600002  9.7966243407977611
  2.1861216629800917  3.9224426798400001  8.3766615380033365
  6.7886985911976980 10.0658317634399985  4.1672927756245066
  7.7143068802090147  1.1835576265200001  2.7473305357632167
  1.5446985855140059  4.9598316613200000  4.1672928882111338
  2.4703067753290155  6.2895576265199997  2.7473305357632167
  3.4151170249296863 10.0658316613200007  1.4620383392022396
  2.4895091327036001  1.1835572180400000  2.8820010294100364
  8.6591169143659936  4.9598317634400004  1.4620384517888667
  7.7335089115762159  6.2895575244000002  2.8820012545832907
  1.8140344578208325  8.5829637868800006  9.4242023030182178
  7.0580341431808318  3.4769634805199998  9.4242023030182178
  7.8214115287865518  8.5829637868800006  7.4637914918085286
  2.5774115231028594  3.4769639911199999  7.4637916043951567
  8.1055965476228593  1.6290364173600000  1.8344602643951557
  2.8615964370591671  6.7350363152400003  1.8344603769817824
  2.0982191677008326  1.6290359067600000  3.7948709630182180
  7.3422191563334485  6.7350362131199990  3.7948711881914714
