 O Si Au 
 1.0000000000000000
    18.1541673199999991    0.0003963400000000    0.0000389000000000
    -9.0767404299999992   15.7217942399999995    0.0000413600000000
     0.0000163600000000    0.0000295300000000    7.6305892899999996
 O   Si  Au 
  72  36   8
Cartesian
 15.0686101625072233  6.5822933399412591  0.5658939944506916
  5.8411857999968824 13.7566363399427374  0.4889386105311991
  4.3091352643941203  2.3638072868586368  0.4491228730585616
 10.7956075426552260 13.7003556473089869  4.3239092508908579
  1.8267147922500089  6.8763611124628508  4.4142517314365008
 12.3062813964181359  2.5243819868070427  4.4387426852060727
 12.4024039466590015  2.4615860337069639  0.5546837981510625
  1.7998924281365449  6.6700755293718776  0.5329042463796361
 10.7939220973843959 13.7332255706803057  0.4436092712196717
  4.0003188829851855  2.3527448969112053  4.4647196642149689
  5.7784654323688232 13.6604138357855369  4.3279573458871301
 14.9208390994019968  6.7940168391795472  4.4805162497689723
 -2.7160768954505712  9.1699016077067661  7.5816459123905870
  3.3473976671151329 13.0676462117025505  7.5719015089758503
 -2.9658715864913012 16.1357374372908495  7.7297012874893039
 10.2629691916570884 11.1772682468432212  3.7017057473022827
  4.3292057428881252  7.5790619871646330  3.8469683621338562
 10.3601697465333640  4.3305299569221569  3.9926829706692470
  1.4018354531681874 16.3979061049277171  7.6392776074444182
  1.3227732239963783  9.2008034565409691  7.5022292358321270
 -4.8073642614176526 13.1200610463878231  7.5633767885029091
  5.9636444464337002  3.8481823628695953  3.6248679515309146
  6.4301033245455290 11.0866505549673384  3.7508428363919784
 12.4915515461974866  7.7692208159191285  4.0387223698343471
 10.4221725604561968 11.1927399181148903  1.0321547020356430
  4.2239144325786508  7.4836763700614073  1.1689454722923724
 10.4315624379083705  4.0722387057593101  1.3016604171754917
 -2.5354478803162599  9.3420082949224170  4.8977958962536050
  3.2226083614226217 13.1589253865364633  4.8818662660275898
 -3.0507267870296615 16.4513709086791664  5.0497957615043623
  6.3065817616472106  4.0515270647330297  0.9751213468373107
  6.2652997189227833 11.1917028087800272  1.0798150926759795
 12.8428248672212355  7.6708287288953381  1.3583036189545230
  1.4594479929743411 16.3158758660091934  4.9444046547568536
  1.0593172365160390  9.4214238704076916  4.8228122741674859
 -4.8542917169017148 12.9205888994041178  4.8882719115585083
 -0.6751344167278722  7.5563576377127344  0.5516892235971153
  3.9155330686871621 15.6200793509268330  0.5229698201221644
 -5.5304417748543928 15.5973695445772975  0.6677043602809692
  8.2915087947541064 12.8834468691875852  4.3273924705880358
  3.6594672230569163  5.0030325239622320  4.3322931934540527
 12.9020497237831968  5.1014302542069681  4.5739027294876280
  8.3188587607602429 12.7953129211468859  8.1417228064693248
  3.7792493614385432  4.9146702613288333  0.5571531681454202
 12.9069085577544378  5.0340483534456499  0.6387897433333688
 -0.7002247965667895  7.4889924686990055  4.2624551430759725
  3.9923268669172041 15.6657598396934912  4.3249144644957500
 -5.4415594877010349 15.4729027630631837  4.3408519693808580
 -2.4138989267823274  8.3730275410111936  2.4488143754507297
  3.9674293023741805 13.7545538653467538  2.4182980898690483
 -3.8821971459153111 16.6277625903598469  2.5220958584533038
  9.9764974297301485 11.9969511683178922  6.1999266829459225
  3.7048391056467720  6.8226919635307466  6.2960083915354002
 11.2781599418722713  4.0654327616710555  6.4045500533854760
  2.3496420756563028 16.6059462607656556  2.4768669066787594
  1.0224833867629430  8.4337431850562776  2.3998140753639667
 -5.5240345449401351 13.5811994439940413  2.4147881261061550
  5.2754807868009168  3.9834099965970435  6.1807260363133132
  6.6213517921430478 12.0003861248134136  6.2282583824477777
 13.1114663157852505  6.9941134744560012  6.4512770178186312
  6.1291193745756143  6.1882478705971291  2.5152711403499759
 11.0607280926908054  6.2058588317372907  2.5169207153568700
  8.3751979185456005 10.0553842579767654  2.1533971525142532
  1.1830909824689617 14.0720546114107083  6.3545116375061266
 -2.7439411940257408 14.0277880293742339  6.1140988924125264
 -0.7315536922285379 10.5496934516841083  6.4638859060077696
  8.2794009021424859  4.3841224764370876  2.7286174485004646
 10.9050611561217448  9.0146459432724164  2.3353662583324288
  6.0206580277116561  8.8969984002688864  2.3003010284335490
 -0.7878338731524580 15.8310635118996572  6.2551976593427128
 -3.2238538844693698 11.4324875613765808  6.3312479534486537
  1.7359373815341188 11.4876744597521796  6.2675935787912938
 -2.2220121979032030  7.9324963311573189  0.8944738291428527
  4.2654957630940382 14.0602005446162543  0.8488742828934490
 -4.2813448844731177 16.6137216218349479  0.9435304795787416
  9.8246578091976531 12.4425687458620757  4.6490381499342126
  3.3891147120571832  6.5610390204797691  4.7198726888168059
 11.6980688970319484  4.0081898659205013  4.8324018725835414
  2.7381107083506002 16.7066475198664754  0.8995308798090349
  0.8658077751394119  7.9761076024963984  0.8468527687804932
 -5.8031719844733889 14.0032519245414147  0.8661777963625247
  4.7278895918786796  3.8079132364561405  4.6561809041102995
  6.7642379353884872 12.4120090034144201  4.6634838560559455
 13.3386607478480652  6.6372934644311306  4.8713064648424975
  9.8653583193864929 12.4295006893495597  7.7629797421733171
  3.3861020157069124  6.4554461939022252  7.8517614219074590
 11.7216751765587066  3.9396840591198612  7.9628340884912712
 -2.2341681505842166  8.0001363579161939  4.0222234876959213
  4.2296326407603688 14.0787635739947259  3.9904359045686131
 -4.3480466674592133 16.6561163541529034  4.0826064261489838
  4.9343944168214202  3.8348714361335556  7.7613097842162677
  6.7596160936698704 12.4468017638464072  7.7877580571532041
 13.4483005285114618  6.5280368005973202  7.9828323069267020
  2.7592795051627421 16.7315528058106615  4.0479426216170777
  0.8004361309558531  8.0603076816679469  3.9678316779450191
 -5.7737864277563116 13.9208928340847820  3.9852535917149159
  6.7274399033609456  4.6682572997825798  2.4369920466477977
 11.7438338635765653  7.6401541243016950  2.5872252467059980
  6.7767062819442705 10.3143353783196172  2.3543882973375005
  0.8266331789604900 15.6662596336676696  6.2979078495842327
 -3.9076083077145105 12.8927445638715188  6.2247496185568432
  0.8348968045229846 10.1518285761063201  6.2654185689289408
  9.9740691111449102 10.3233502671794390  2.3324647390174671
  9.8396773530675024  5.0262701919327482  2.5576186947301269
  5.2127068137445480  7.5065859524874741  2.4707531488641181
 -2.2934534448908654 10.1099469278117926  6.3164459866929192
 -2.3930105702918660 15.6147548519767305  6.2905401696151007
  2.3762550885652840 12.9707556641535628  6.2650891906908761
  6.9582472853979134  8.4710969364541846  5.0133707108982595
  8.7116801890243885  6.3834270882010973  0.7866104363079939
  6.4024022548455646  6.8249942655858460  7.1003863906669906
 10.7339132493635585  7.7957485480973245  7.2377998453604535
  8.7841494974168768  6.5946464022008477  5.7468079570143793
  8.2593466037019265  8.8526190974056895  7.3744191651541264
  8.5957466304973771  7.4080148126441028  3.1813867208720912
  9.6796423319986822  9.0329021358638162  5.0456626416696375
