 O Si Al Cu 
 1.0000000000000000
    20.0899999999999999    0.0000000000000000    0.0000000000000000
     0.0000000000000000   19.7379999999999995    0.0000000000000000
     0.0000000000000000    0.0000000000000000   13.1419999999999995
 O   Si  Al  Cu 
 193  94   2   2
Cartesian
 10.1121530349000004  1.4215694464799999  9.4607143452199995
 20.0122354270999985 11.4728540214599999  2.7024807969000002
 10.1218231554999996  8.3538915793800008  9.2845690965599985
 19.9413659430999992 18.0929675760399995  2.6689248026199999
  9.9607324950000002 18.1636548806799993  4.0077180843199995
  0.0880104729000000  8.3582959166999995 10.3890861210000001
  9.9988970661999996 11.4454292547400005  3.8321136289599997
 20.0668695794000023  1.2686056704999999 10.4426283374600004
  7.7257075392000001  1.4188104688400001 10.6111050976999994
  2.2331368976000001 11.2649560360200010  3.9589540362200002
  7.8435615061999995  8.6624729054399996 10.5638232043600002
  2.1320707372999999 18.3933521054600000  3.9915787883800000
 12.1884505168999997 18.3691902275200007  2.6608042294000001
 17.8419290000000004  8.3347198626000001  9.1967270486199997
 12.2873007502000000 11.2925797617800008  2.5643716503199996
 17.7512632317999994  1.6144331946999999  9.2578963561999998
  8.1215074598000001  2.7501330422000003  8.3474238530000004
  2.0923735000000003 12.5985913108399981  1.6948953532800000
  7.9020525367000003  7.3391606046200000  8.2691663970800011
  2.1018660249999996 17.0501514010800008  1.7211032610999999
 12.1610730703000005 16.9170880688400018  4.8291109574400002
 18.1539100253000001  7.0676026346800001 11.4796874758999987
 12.1568465360999998 12.6144685580400004  4.8287460041000001
 18.2541705766000000  2.8568293671400000 11.5033436015799992
  8.1083382638999986  0.0652980411200000  8.3723054701800006
  1.8125039288999998  9.9202986672400009  1.6922549940600000
  8.2771139520999988 10.0045386748199991  8.3213192412999994
  1.6974034972999998 19.7117431307400004  1.7173255932000000
 11.9571338550999986 19.6053227430399986  5.0055674086600002
 18.1866480865999982  9.7647539503799994 11.4390290191399995
 11.9396704216999989  9.9279007579399998  4.8268161013999995
 17.8499533477999996  0.1933157484200000 11.5157140347599984
  6.5152273808999999  0.5903965424600001 12.8139911875599992
  3.4910764665000000 10.4417085311399997  6.1637062900800004
  6.5498352185000002  9.3223341808200004 12.7845935849199996
  3.3891916387000003 19.1479157127000015  6.2148387894199999
 13.3134718331999995 19.1035766642600002  0.4294721491199999
 16.6849238010000001  9.0975019782799986  6.8917837351000006
 13.4738229807999996 10.5580589092599997  0.3189341300200000
 16.6921535893000019  0.8624663187400000  6.9190858458399989
  6.3888389809999993 18.8503223338599994 10.5967473312799996
  3.4493525499999995  8.9433152358200001  3.9422864318799999
  6.4043088837000006 10.8799191721999993 10.5873547438800006
  3.4686049979000000  0.9192302407999999  3.9899992514000000
 13.3511883974000014  0.9913511163800000  2.5360603654000000
 16.8944655145000020 10.7450843544600012  8.9651003499800002
 13.4159398737000011  8.9272108042399996  2.4298147863399997
 17.1390234952999982 18.8476209911800012  8.8535355464199998
  5.0510790295000003  1.4165145446800000 10.7798432523199992
  4.9044706473000002 11.1822396046600012  4.0939945258000003
  5.1843554868000004  8.5128353772200001 10.6876497567599991
  4.8060987569000000 18.3713846983600000  4.1406254958800002
 14.8614814697999993 18.5231574834200003  2.4770219016999997
 15.2054218680000002  8.6268923971199989  8.9844652183999987
 14.9498648130999996 11.1193403226799994  2.4151162478599999
 15.1762945823999988  0.9762389140600001  9.0392175502200001
  5.7824755694999999  2.5052201879800000  1.3559119194800000
  4.2017561985000000 12.3177395062199988  7.8724807781399990
  5.8544907861999995  7.2736509721399996  1.2415201403000000
  4.1846746760000002 17.3004955607600017  7.9317995607000000
 13.8271628873000001 17.1624323957399980 11.9201506738799985
 15.7592187900000003  7.2709223910199992  5.2205974697599995
 14.2731578737999989 12.4373963940999985 11.7874053031799999
 15.7270870448999993  2.6054463965200001  5.2060408648800003
  4.0045521557999999  0.6336780288600000  0.5423770424200001
  6.0462411975000006 10.6088676793399994  6.9636982047199991
  4.0440993208000000  9.1344884243399989  0.4586910205599999
  5.9437058554999993 19.0852007836399977  6.9552231917600000
 15.8545645237000006 18.7733324884400012 12.8068468021000008
 14.1032951156999999  9.1553651095599999  6.1786992093599995
 16.0323379201999998 10.6194352071600004 12.7306946945800004
 14.0989880206000002  0.7599781353999999  6.2817830860599999
  5.9978054129000000  0.0325953332000000  2.2007110888599999
  4.1443630865000003  9.7974945552600001  8.6255055503399998
  5.9984587396999993  9.6743438440000009  2.2077680800200001
  4.0785966633999999  0.1028693241200000  8.6726610176399994
 13.9880715323999993 19.6706340086199987 11.1268511913200001
 16.0061164522000006  9.7698637238200003  4.4292829548799997
 14.1382748191999994  9.9209618640399988 11.0076160594600001
 15.9605248088999989  0.0752675075400000  4.5045427205999999
  2.2927099754999998  2.5298334739799997  1.3091260052200000
  7.7993156919999995 12.5257715126799987  7.6769305779600003
  2.2992731775999999  7.3145100138000005  1.3034830932600001
  7.5085527202000009 17.2135076288200004  7.9954437697199996
 17.7262764952000005 17.2257274246200005 11.8440724244000002
 12.3208038386999998  7.3441020129199996  5.3494835607399995
 17.8636975195000005 12.3830341918799984 11.9293471826399990
 12.4035641919000010  2.5054623732399999  5.2355521458199998
  1.6650280605000001  0.9222493652799999 12.4415191779399983
  8.4287729602999999 10.7470518382999991  5.8280559303199997
  1.6549201788000001  8.9170579718000003 12.4452069545599997
  8.4290672787999998 18.7550225327400000  6.0466444507599997
 18.3073552353999993 18.8522343539200001  0.7145175294200000
 11.6863648530999988  9.0477578759200004  7.2725959207600006
 18.4266625130000001 10.6898126252000001  0.7319941552800000
 11.6317616393999987  1.0583892595800000  7.3034662159199994
  2.5293609341000001  1.7381377542399998 10.0518044447800001
  7.4386989865999995 11.5164436180400003  3.4524447972999996
  2.6449776786999997  8.1795168105199991 10.0742005154999994
  7.3946580904000001 18.0929742869600005  3.6849839449999999
 17.3791128573999991 18.0680686811799980  3.0988437797399997
 12.6892960249999991  8.1977561041799998  9.6151040642399987
 17.4537729225999989 11.5452537949799989  3.0892247556800001
 12.7132103574000013  1.7107273962599998  9.6590093835199990
  1.6713451601000000 18.9887769034199998 10.3456621931799990
  8.6174895806999992  9.1463103020599998  3.7314003062199999
  1.5424079419000001 10.5920572194999991 10.3817694439199997
  8.5687853936999989  0.7184501729200000  3.9873369450400000
 18.6081165983999988  0.6736383993800000  2.8579823291199999
 11.5627470650999999 10.6014463887199994  9.4272889824199986
 18.6412749425000008  9.1812749847799999  2.9100561899200001
 11.7094792017000007 19.0323599864599977  9.3091505504600001
  4.4980595904999996  2.7565707882799999  8.5978646388399991
  5.5052852008000004 12.2491736418199988  1.7801835163599999
  4.5324096734000001  7.1394982996799996  8.5403913873399997
  5.6431242979999992 17.1120343734400002  2.0213272571399998
 15.4205530212999999 17.1747404203999992  4.6443176156799995
 14.6193989788000014  7.2747693272199996 11.1644254835200005
 15.4863652496000004 12.4015058017999991  4.6354357263999999
 14.7442942899000009  2.5106189257399998 11.1566013938200008
  9.8307978082999998 17.1990775717799984  9.3112932221399998
  0.1555960455000000  7.0957667868799996  2.8895229976999999
  9.9268687910000004 12.6795173082199994  9.3455708436400009
  0.1780430043000000  2.7343185618399999  2.9549997272000001
 10.2482115553999993  2.7409444110599996  3.6798002145200002
 19.9015989934999986 12.6185667589800001 10.2269737685200006
 10.2337353041000014  7.0696467019600000  3.6859908850399998
 19.9082037818999993 17.0677567101799994 10.3822591148400001
  7.6897259474000004 16.3141701339399994 10.4685627602599993
  2.5250375661000000  6.4603425371599998  3.8176705709599994
  7.5497285814999993 13.2782231539199991 10.2145486646199988
  2.5670823198999999  3.3942311560199996  3.8275663655399996
 12.6171064270999995  3.4867040807800000  2.7609996259199998
 17.4580836338999994 13.2730660092800008  9.4509171156399994
 12.6534432101000007  6.4467410813599999  2.8555313461199998
 17.5865764612999982 16.3055882489199995  9.3462798545399988
  8.7355623278000003 14.8860905029200001  8.4586846820999995
  1.4058106076000001  4.9126989842399995  1.9860396729400001
 11.4765904974000001  4.9213355435199997  4.6691962102000000
 18.6981953367999978 14.8110034007000007 11.2212095685399991
  6.5814365876000007 16.8368189520999998 12.6838522697199991
  3.7089342346000000  7.3090269947800000  6.0182926884799999
  6.4441620193999993 12.7364831500199998 12.4913211812000000
  3.7466459772000000  2.5472447585400002  6.0715188398399995
 13.7246185048000005  2.6685432558799995  0.4706698221400000
 16.4953796735000005 12.5929876926399995  7.0830405753000001
 13.6742078731999985  7.0863047844400002  0.4975065746599999
 16.4935952796999992 17.0069616963799994  7.0579096543800004
  4.7883982615000003 16.4340707861199995 10.4052598489799983
  5.1472416226000002  6.9269220134799996  3.8145343640800000
  4.9126308034999999 13.0536390580399999 10.3324126916200001
  5.1943542797999998  2.9405494758000001  3.9249366263199996
 15.2303019267000010  2.8494882128000003  2.6069007393599999
 14.9094459429999997 12.4301683384999997  9.2042542605399991
 15.2503065441999990  7.0483310436199993  2.6118858942199998
 15.0702682011000011 17.2902856854999989  9.3144258806800000
  5.8705680095999995 14.7191409722799982  1.0127014928000000
  4.0722701214999999  4.9371527871999996  7.1651587565599995
 14.2437412921999993  4.8876271844999994 12.2260863145399998
 15.9703729268999997 14.7937812061800003  5.6573299167800002
  4.0346286939000002 16.4043937162199995  0.0383819995200000
  6.1410963334000002  6.4802196900600002  6.5134856140399995
  3.9279522002000000 13.2238534512599983 13.0378634490999996
  6.1904257211999996  3.4072732369000001  6.6537571452999993
 16.2355615295999982  3.3785897779199998  0.0126002867600000
 13.9948422641999990 13.2991712907000004  6.6187925914600001
 16.1859673555999990  6.4596315744000004 13.1400419734199989
 13.9847757679000004 16.2550747593199993  6.6716293453599995
  1.8661552784000000 14.8356255687999994  0.2825950544000000
  8.2966695580999996  5.0224438432800005  7.0022790426999997
 18.3725221728999983  4.9642577983199994 13.1148520449199992
 11.8012894972000009 14.7617649858999993  6.3636697052799995
  1.6971318805000000 17.1960438411799998 12.2468580340599988
  8.5014274408000006  7.3388126236799991  5.6851394401400004
  1.5132529320999999 12.4698644172000002 12.2542557972799990
  8.5609259848000008  2.7088764772200000  5.7303480515600000
 18.5486401534000009  2.4979775262600001  0.9467466573400000
 11.6753565375999990 12.3072386928400004  7.4037768677800004
 18.4655525340999986  7.4370727300399997  0.9308021258400000
 11.6262577829999998 17.2164142466999976  7.3695770469199999
  2.2587176955000001 16.5123453779599991  9.6619382096400006
  7.6859018159000003  6.7314879828999992  3.1765228562399996
  2.3570305213000000 13.0088071517399992  9.7417211889199997
  7.7036682064999997  3.0927551152000001  3.1857569511199997
 17.7151158974999987  3.1101798216000001  3.4353323362599997
 12.4565463435000012 13.0600019971000005  9.8918427805999993
 17.7223627622999977  6.7408858368399995  3.4322426520599998
 12.2932847575999986 16.5298004808799988  9.9050867625199999
  3.9000009832000000 14.7839171406799998  8.5351545631800008
  5.9812980625999996  4.9067912034600001  2.3017289117400002
 15.9053795669999989  4.9379046076200002  4.0982706697599998
 14.4433722068999995 14.7207107354200009 10.5043438265599995
 10.2391129953000011 16.8582492882199979 12.6007827390799996
  8.5079343908999991  1.4096869730999999  9.1832553158399985
  1.5193653146000001 11.3016416749599991  2.4911166966999998
  8.5321571048000013  8.5937905868399991  9.0869312896799990
  1.4523038900999998 18.3175054850000016  2.5085793920400001
 11.5663216787999996 18.2793967362600007  4.1617546778000003
 18.5817563085000010  8.4009799338399986 10.6501650930000000
 11.5997940295999999 11.3054163700799997  4.0402056340000003
 18.4865377444999979  1.4579716477400000 10.7056804493399991
  6.4157226154000000  0.6075715631600000 11.1794947578199988
  3.5200836138999998 10.4571027894800004  4.5419988662200002
  6.4929373249999998  9.3534361369399992 11.1568455721799999
  3.4490162434000000 19.1411623559999988  4.5929314757399995
 13.4470986601000000 19.1850413116600009  2.0455417863999998
 16.6473749882999975  9.2036726802800004  8.5146418724800004
 13.5416632945999993 10.4707218121000007  1.9352387462600000
 16.6793180883000005  0.6323241994400001  8.5285146990999987
  5.5568090193000002  0.9496695922600000  0.9335903325600000
  4.4846444930000002 10.7956576502000008  7.4032252980399997
  5.5936351947000000  8.8413712291400000  0.8746626559200000
  4.4026178266000002 18.8315927482799985  7.4544995995600001
 14.3043321294999988 18.6785496255400005 12.3539762419199981
 15.6242499511000013  8.8237347340000003  5.6889436548799992
 14.5008677778999999 10.8962505907799994 12.2455869398199990
 15.6058031122000003  1.0730918984000000  5.7327274106599999
  2.4319192106999998  1.0187561451000000  0.7203517889000000
  7.6141909626999995 10.9733795890999986  7.2028515895999998
  2.4639024907000002  8.8172583014399990  0.7009749612600000
  7.4763701473999999 18.7201429208000008  7.3561710241400000
 17.4535923134999997 18.6931322573199985 12.4881401601000004
 12.5235643736000011  8.8635208179799996  5.9007258021000002
 17.6211117739999992 10.8706529707200001 12.4816678565199997
 12.5312062078000004  1.0522426489999999  5.9495012837399992
  1.4666710527000000  0.7855777292599999 10.8379194587800001
  8.6167898459999996 10.6947867985799991  4.2216176705799997
  1.4891011358999999  9.0319001693400001 10.8366449476200000
  8.5823425274999998 18.8985732565199989  4.4411618772599999
 18.5596008555999994 18.8760182491599977  2.3202977692200002
 11.5245145897000008  9.0671415788199994  8.8863713590999982
 18.6291978389999997 10.7053861045799987  2.3400455955199999
 11.5345479374999993  0.8688912351200000  8.9140431542999998
  4.0432199815000001  1.4903188742800000  9.5052959518199991
  5.9679239487000002 11.1554245447599989  2.8686862252799998
  4.1257555276000000  8.4121216400800005  9.4576862969999986
  5.9533601049999998 18.3594169568199987  2.9961042234400002
 15.9139776851999990 18.4007491183399985  3.7112604540599996
 14.1641360734999999  8.5098669793999999 10.2208715436599995
 15.9769767107999989 11.2019468133799993  3.6683275113599998
 14.1665464717000003  1.2879104213999999 10.2607276813200006
  8.4575155223999996 16.3853033199999985  9.0287814880199999
  1.5850951738999999  6.4506815756800000  2.4891227924599999
  8.5103441863999993 13.3271763546199988  8.9086847666400004
  1.6007764234000001  3.3834240088800001  2.5147992377999997
 11.6733326709999989  3.4074082448200000  4.0920510868400006
 18.4885517670000006 13.2707438335799992 10.7107598323399991
 11.6650272641000008  6.4577886373399993  4.1474856198800003
 18.4904303829000014 16.3473899774600007 10.6964765810599989
  3.7119105681000000  7.4039663800200000  4.3921066024399993
  6.3142528469999997 12.4745790358799997 10.8905600026199991
  3.7382041591999999  2.4552183073400000  4.4462691213000003
 13.7315656268000001  2.5095522842199998  2.0945214947199999
 16.4351623093000008 12.2750241056599982  8.6815682709799997
 13.7468838499999997  7.3746807146599993  2.0997188928799999
 16.5329658536000004 17.3456756453799983  8.6580941619999994
  5.5241700016999999 16.2668930841999995  0.6625820538799999
  4.6180332534000001  6.4635704896800004  7.0724014691999999
  5.4261279890999994 13.2346803364000003  0.5126064698199999
  4.6377586198999996  3.4134774824399998  7.1277286320999993
 14.7378474089000004  3.3674632699400000 12.5344101194399986
 15.4935675146000005 13.2734939291199989  5.9961411903799995
 14.6820086602000011  6.4256433305399998 12.5389479206200001
 15.4760203058999988 16.3056881231999995  6.0103436183599994
  2.4263558878999998 16.3636635637000012  0.2857262673200000
  7.7188867833000003  6.5406671176799991  6.8691200932600003
  2.3442161148000000 13.2819702158399995  0.2470622404800000
  7.7846901720000004  3.4742071634600000  6.9370250700999989
 17.8445284450999999  3.4296338249600002 12.9609276841199996
 12.4092430321999991 13.2454722852800000  6.3003274994199998
 17.7926536543000005  6.4792239079600007 12.9452261481999997
 12.4061085903999988 16.2737317090600015  6.2981527612599999
  1.3729755116000000 17.4250233922800000 10.6655267767999984
  8.7415517595000001  7.5667865236799994  4.0867768079799998
  1.3144491226999999 12.1754192493599991 10.6607118108399987
  8.7514774248999991  2.3222943253800001  4.1613330824399997
 18.7739079171000007  2.2576160574599999  2.5397325030399998
 11.4288896050000002 12.1647488865600000  9.0108230764399995
 18.7543719993000018  7.6090714384600000  2.5248264523799997
 11.3824875311000007 17.4880920262999986  8.9457183969599985
  3.7985372418000001 16.2899295013799978  9.1559098364999993
  6.1707182348000007  6.4796999885199993  2.6381129893599997
  3.8395381191999998 13.2786970633000010  9.1310786845999985
  6.1718864683000003  3.3479297556200001  2.6955046290399998
 16.1589868873999976  3.3650966837399996  3.8342133263000000
 14.0276227153999997 13.1867102854799985 10.3496988899000009
 16.1657168364999997  6.5105998275199992  3.8379151648600001
  6.2048093576000003 17.1859488410799983 10.9543562645799994
 14.0345489437999991 16.3660950879199980 10.3069001270200005
  8.5306585917000000 16.6079813172199984 12.2603691928400007
 11.8411112925000008 17.0029651461399993 11.8763219724599995
