 O Si Au 
 1.0000000000000000
     8.9848655900000001   -0.0000010900000000   -0.0000004000000000
    -0.0000010900000000    8.9848744800000002   -0.0000018100000000
    -0.0000004000000000   -0.0000018100000000    8.9848666399999999
 O   Si  Au 
  24  12   8
Cartesian
  1.2116767991070281  4.3770850885848080  7.8442966337094093
  5.6449867017795752  8.6688898209569274  3.3455119277151124
  7.5700020311300467  1.1732541839060500  4.2627589799737002
  3.0215862443075765  5.7067454418000629  0.0144879813486421
  4.4131819684748024  7.6845162610789179  1.2438179093984583
  8.8344240852466456  2.9281685817135834  6.0020656763299476
  1.3512788224198193  4.2213263708822550  1.4593643463344173
  6.0098740750068869  8.8822056882998730  6.0875280251771979
  4.2888158718590121  7.6335106223870826  7.7301342150321952
  8.8471641768066540  3.1814980274766786  3.2621773540169441
  7.6666245409435572  4.5041261563192689  7.6536298135096263
  2.9330211808206887  0.0394451499982628  3.0226577885650712
  1.2271425118613317  1.3442093756132119  4.5889871567997957
  5.7940973792691288  5.8297206276385021  8.9623871378409881
  7.6909206033839537  4.6341187104920234  1.2998537566590058
  3.2772715069467755  8.9624443363541264  5.7746050821508783
  4.6135669824275265  1.1526660585315687  7.8485088779038614
  0.1786864680457176  5.9057146688820135  3.1123900301404626
  1.2247104233903201  7.7430224773543763  4.7590329148058812
  5.9749457482023134  3.0967736173689722  0.1292747191016731
  4.7530928560386441  1.3559243965973464  1.5609718436453224
  0.1219949203712719  5.7220836807817150  5.8737309673537519
  7.6548602475249998  7.5015446851675822  4.6340967588263346
  3.2613693610302068  3.0077620647882397  0.0706380907196649
  2.2490825845384976  4.2866291440145137  0.0930871963993423
  6.6501045923200159  8.7441647248540093  4.5992252076181463
  8.8025665996075038  2.2157151484907374  4.5228872263285984
  4.3472571389550714  6.6116491839999689  0.0305578029643975
  4.4432214059667938  8.9573297101148821  2.3290908879295129
  8.9573746664963423  4.3573070450169782  6.7417376107474452
  4.5362366798344258  8.8533568130029359  6.8298707165988777
  8.9437064407333260  4.4896845186999883  2.3218043216395587
  6.7399045081152593  4.5232256893503866  8.9748948323821445
  2.2095548826788929  0.0609141151643477  4.5142140535234594
  4.6301731256771577  2.1371795749396374  0.1158269629852082
  0.0300483297773639  6.6910201011220556  4.5457858159912279
  4.3791047465269060  3.8447615577590395  2.7994414232358107
  4.3991178793794301  4.0656123733616036  6.8249605590874554
  4.3644898084692594  2.1882850877230577  4.7558599000357971
  4.5698304927072755  6.2194469187202035  5.2747199428532792
  6.4029590715869924  4.0621403737463782  5.0459814943918859
  2.5183462906962584  4.3937627098584242  4.8913280560587200
  6.0470452344384125  5.8748165175566660  3.0304670189672818
  3.1538816348268779  6.2202745114730167  3.0253776903170326
