 O Si Au 
 1.0000000000000000
    13.7029250099999995    0.0000001400000000    0.0000007200000000
     0.0000001300000000   12.6471261899999998   -0.0000012000000000
     0.0000009800000000   -0.0000017600000000   18.5380665200000010
 O   Si  Au 
  96  48   8
Cartesian
 -2.8016099992325834 10.6467314863982541  1.6362393317779789
  4.1329934712717513  4.2300743464899950  1.6320948293525150
 -2.6489646070822395 10.7175629989954171 10.8662037644640534
  4.1079377632142942  4.2871113604010578 10.6781509203517277
 -2.6192759372275307 10.6511138627072359 14.7400528717318320
  4.1009689175567683  4.3414044203815800 14.8733487064819272
 -2.8101621878459393 10.5659651391958800  5.4462306073401283
  4.1396304542124849  4.2968872002589196  5.4655719863138490
 -0.9752709717512491 -1.5867326769267969  3.5530635817421947
  5.9490110618576031  4.7602983721350425  3.5360965254897510
  9.0704325541442117 -1.5765784058117018  3.5458607125743846
  2.3084034026962987  4.6546673204290236  3.5410223080095475
 -0.8446119371359779 10.3271071626478399 12.7820489413065719
  5.7386922231505046  3.9783755671833241 12.8042698908800112
  9.2909913919647860 10.1597167185186397 12.8121571499947891
  2.4443486032941228  3.9367072282055453 12.7952043478813575
 -0.9158493544535159 -0.1260426247122844  1.3537315644727317
  5.8681625721810438  6.2400838528110816  1.3546132533249577
  9.1974288341646204  0.0689971389733259  1.4896078050978376
  2.3784093669610566  6.2397424481542965  1.4296444832440074
 -1.0934482378608936  8.5683436519797649 10.8149305359507224
  6.0649004851752366  2.5072911383193492 10.6437806162736130
  9.2349169861916209  8.7837050307805651 10.5750976716833360
  2.2173517357813202  2.4632394449363875 10.6327828423717019
  9.1838631582043391  8.7877390921362100 15.0430226734917944
  2.2374819591251311  2.4443586849788836 14.9607826715888361
 -0.9429517626035450  8.5804070879129331 14.7884293662845874
  6.0242311427534858  2.4848852775861441 14.9784295278409925
  9.2804969967336888  0.0611184160708835  5.6158548336122953
  2.3864325534512525  6.3312178476495715  5.5592433783493780
 -0.9717882320434934 -0.1847630246250888  5.7981417033287084
  5.9380049741261347  6.2506289479539845  5.7133414688367541
 -0.2824907029462969  9.9279299571342126  1.2617567420101727
  6.6908593475806182  3.6900123736511588  1.2443530606546096
  8.3428154573049564 10.2057330283123555  1.1563909021851322
  1.5712834909787854  3.6987702985809707  1.2136953416815333
 -0.0738835731858785 -1.6149700955827206 10.3674522285498139
  6.6517410022493353  5.0885387749725686 10.5874829822953949
  8.5078421860774309 -1.2953216051113956 10.5859090130971349
  1.5211248396044128  5.0092363768049646 10.5589898467890588
  8.5672870946536541 -1.2626937670447100 15.0431000406442212
  1.5486649611476393  5.0264882775006763 15.0300443330786226
 -0.0488769410617642 -1.5542625949057647 15.1653069360557780
  6.6327932757130332  5.0797919449370692 15.0276206702607542
  8.3069632618505658 10.2540805693334516  5.9286498829101575
  1.5877039055956819  3.7987486854298225  5.9261766059470364
 -0.2702910755612148  9.8819436222340489  5.8057557237796722
  6.7062374459651863  3.6997035595156431  5.8321864998904402
 -0.8432550403087504  8.8397033863856933 17.4591567316557814
  6.0830809335834983  2.2210849329089992 17.6569134989657073
  9.0591699646716233  8.5792282724351310 17.7260115262948474
  2.2546230749724638  2.2811151673698782 17.6361983962564501
 -0.7076423240085543  0.0900135788792090  8.4674419676092203
  6.0639589506513598  6.4268730986208213  8.3872354853649185
  8.9811512063087964 -0.1124435050410372  8.2661307371719559
  2.1650866164462257  6.0822957666450446  8.1684585834536367
  8.9670250135499483 -0.0802248441249463 17.3698081754877514
  2.2710055476102582  6.2158441214628910 17.2843631582185360
 -0.7697757805079652 -0.0486035365161617 17.2079746612556299
  6.0179887612536369  6.4248805873802057 17.2194324941212216
  8.9990734780634209  8.6345143241513522  7.9039441637726080
  2.2047345054915959  2.2028209799173264  7.9510202813401385
 -0.7298054247615372  8.8750876077573206  8.1932240626466655
  6.0521962156190039  2.2812696363934664  7.9608941112607301
 -2.7175028208428498  7.3378426007754163 16.3708524632863792
  4.1523254799488045  1.0669317675539469 16.2547787464425042
 -2.7014081088119322  1.2780165825013736  7.2441905507604050
  4.1008565845046414  7.6163361788480710  7.1055684347424277
 -2.7046149325831039  1.2400932707533576 -0.0983148273497941
  4.0822247069572137  7.6937488219983017 -0.0224536104217190
 -2.7147919366210753  7.3940055113391017  9.0943275159439114
  4.1591149206183680  1.1047519934873113  9.3657339688335117
 -0.2047302047026712  6.5355015453932976 16.2767664772268823
  6.6152262746217785  0.1510111331606899 16.0680027101292708
  8.4995108027115620  6.5088482715956895 16.1498198001249094
  1.6894763487811779  0.1490449991030259 16.1273598567102674
 -0.2203351859121217  2.1125252887350636  6.7878176819114691
  6.5375901374982979  8.5498043834506419  6.8213069264931825
  8.5511367317583478  2.2053486948289378  6.9861474191027844
  1.6183501745358004  8.4342227690287483  6.9406044453812754
  8.5763858425041164  2.2397328445526679  0.1092069842175850
  1.5051130030687041  8.3495334432607518  0.1485667080303662
 -0.2167331641401483  2.1009514998925298  0.1573070055304545
  6.5787830567439265  8.5135690147114751  0.2463528381133017
  8.5286428397437231  6.5223615884135278  9.4666568799249209
  1.7423516254757645  0.1178205673070444  9.5630186521689442
 -0.3021411232852089  6.4551003290883715  9.2968231478954895
  6.6280892819194275  0.2081354673651943  9.5362910506458398
  7.2876698166203209 10.5140388066277399 17.2303052883572718
  0.4701943373196038  4.2533583265540154 17.3654630065204678
  1.0514646606581624 -1.9511908037297832 17.5889688050293529
  7.6804686753756863  4.3469880714591174 17.3849808265452737
  7.2104582317777801 10.5608243729280176  8.3680126214604265
  0.4078070774352903  4.1499946356065918  8.3201174333732464
  1.0413204834795331 -1.8040791505963480  7.8999851358186035
  7.7209549651253502  4.3536148876633778  8.2348746289337829
 -1.2489501073006908 -1.6050293790436303  1.9527682660633194
  5.6556505755632180  4.7338221981488182  1.9398292149092888
  9.3837346607782770 -1.4867291462724495  1.9553921646736176
  2.6046029400659365  4.7104794009577970  1.9500142359296466
 -1.1479150181886919 10.1666075754752931 11.2060331624391409
  5.6268750095906395  3.9847863495204354 11.1960118061435185
  9.5248651322820219 10.2506246154866378 11.2165149585258668
  2.5905577235216821  3.9591362702162680 11.1843372627014954
  9.5360452777067533 10.2446982230875250 14.4107330747736544
  2.5896750590952027  3.9422300837115443 14.4077992223759370
 -1.1050187542519891 10.1602489971948806 14.3711379827937673
  5.6222580977046430  3.9678530345266694 14.4155948571618371
  9.4003412734710761 -1.4935468953619633  5.1303011379933370
  2.6095715431802633  4.7712132582027369  5.1270340651255584
 -1.2603588060502902 -1.6485995584055733  5.1489860518744761
  5.6739422784683899  4.7479673615989695  5.1329572918077613
 -1.1725852651812039  7.8231738278332923 16.2288464441331648
  5.7198578809881377  1.4916235161103093 16.2396737736805328
  9.4298404317346876  7.8187432163175332 16.3265102828805198
  2.5860416872285628  1.4936818749748799 16.2430083156402105
 -1.1509697940878054  0.8158391535929077  7.0726287701889312
  5.6644388592205654  7.1988289713794025  7.0099102578046040
  9.4441885324878854  0.8561393777668445  7.0349855012352522
  2.5606324019686668  7.1222263393660707  6.9819489025294850
  9.4269895850158800  0.8621581442615766  0.0767842963165211
  2.5592934648092576  7.1247338207897721  0.0708050345565229
 -1.1496873333605317  0.7854067580359485  0.0197581810213409
  5.6367141495342112  7.2080929696595000  0.0608754366671531
  9.4370614614921671  7.8445399161030283  9.2645358369319464
  2.5847508606972887  1.4966948989465956  9.3755644146561536
 -1.1654396043881743  7.8209275243713607  9.3515116725388481
  5.7193994507443593  1.5411714366838269  9.3788822851273750
  7.8258957933503579  9.4546549972512679 -0.1878518513050423
  1.0262381454012386  3.0808507164104229 -0.1849648682616902
  0.3597130799358075  9.4475934131894537 -0.1562743139991211
  7.2470416409620384  3.1227652939970469 -0.1765642240945107
  7.8319188524651544 -0.8069531474867266  9.1936010191198783
  0.9752362587646187  5.4713437660616746  9.1019412036400986
  0.5024370782599809 -0.8052701451704675  9.0923728003060909
  7.2358509992704185  5.6002827204445351  9.1633726800714452
  0.4808207207384428 -0.8473701745091800 16.5277525628929354
  7.1994066548826456  5.5960381637055381 16.4612572313247902
  7.8546724719631156 -0.8228966811094425 16.4380970237321549
  1.0289813928034790  5.5137618177974934 16.4935358688505112
  0.4242400988094790  9.4797830528657236  7.2230549357272320
  7.2513990475796639  3.1368351558086403  7.2593709547532361
  7.7781323807055474  9.4928569125325719  7.2555702947244258
  1.0053818854009824  3.0711014955470257  7.2554377357472664
  1.4804372261282268  8.1232893013290202 10.9319972184293643
  1.6438746059532789  8.8551882699193598 13.5695698433109690
  3.6162881779776179  9.5769547796487817 12.0267767279926954
  5.5127946490145172  9.7979752700820342 10.2184218464185683
  3.2424627288552279  6.8638315140224453 12.6337385559913145
  2.8713493223480131  9.8654028612711926  9.4355476952875179
  5.7084269556282941  7.7575705449475274 12.0440373449707874
  3.9249460365364111  7.4632152885494367 10.0816895834458524
