 O Si Au 
 1.0000000000000000
    11.9587094399999998   -0.0000003700000000    0.0000010700000000
    -0.0000003700000000   11.9587162199999995   -0.0000031600000000
     0.0000010700000000   -0.0000031600000000   11.9587174399999991
 O   Si  Au 
  48  24   8
Cartesian
 11.3718696751488171  2.1041880448954986  6.7194657874131938
  5.3655566874787652 11.4312444071632520  3.3943568279510914
  2.0350415705586902  5.5635985275829958  0.6071350232081336
  5.4590427037474170 11.5163622581250582 10.1187486529967643
  8.5187569273860060  5.3995229831196019  0.9216193010465614
  2.1175779449105070 11.5529123552389361  6.6064126407118913
 11.5721279032968596  5.5512590981556178  3.3655575619401135
  5.5168863906168726  2.2647145159669697  0.3177907328505593
 11.6093062038480674  5.5945840295955458  9.9331988299259120
  5.4327020356892746  9.0217707076970992  0.6122499939757710
 11.4973556666311509  8.8075834172458993  6.6379237516293763
  8.5373725398352232 11.7223386636698770  6.7579207925155629
  0.8703717638003984  1.0868578028695142  4.7093354237361762
  3.7998420330315854  0.9711101681052099  1.8688408781501080
  0.8829919600654229  3.6655535274597852  2.1569740802896775
  0.6355571114989551  0.7341222826145657  8.4737604848712103
  3.5189947302767233  0.9282903658234940 11.1960937149741522
  0.6308383837214371  3.6846522470284491 11.4942441229831953
 10.2302418782827527  0.7092892332316449  4.8530271674863092
  7.0380640679871309  0.6899143944555585  1.7738366465363702
 10.2699740967937760  3.6010237156303200  1.8917395534559023
  9.9941533708241188  0.9796128561240768  8.6828301329388431
  7.4652824925252972  0.9532470386030107 11.0810097029494745
  9.9551010242043763  3.8759546661996866 11.1877537415755182
  0.6161655423565907 10.3399792043194338  4.6271921134439955
  0.9305101359973392  7.4303921366419701  2.1759064899238547
  3.4748366600056682 10.3937015255558158  1.7996496448397963
  0.8383370756211125 10.1883825337254610  8.5662268740083629
  0.5764147807780389  7.5330371920598056 11.5484567508496561
  3.5011906717523122 10.1097704373077288 11.1223441489485815
 10.2370130385423703 10.3581617340178536  8.4062342616141752
  7.4466266576308149 10.3447407974076775 11.5549148083535993
  9.8463520027273255  7.0852935948139075 11.1190596190829609
  9.8467677667698688 10.1449521180737001  5.0440856003836734
  7.3182817339791866 10.0344887245736292  2.2261182773795070
 10.1924914646965963  7.2724271109059506  1.8128063773789120
 11.3797360999786026  3.1806917598210331  4.2594648853654862
  2.8812502653708556 11.4548554669902085  4.1011114187109969
  3.0199799561999954  3.2138078968074719  0.4854574565178174
 11.4994283996771784  3.0699371875858152  9.2170484644653534
  3.0697316809710915 11.5337850439079226  8.9933745257910775
  7.9300534292479625 11.7033210796220253  4.1000277470591966
  8.1419525325164201  2.7690540327892035  0.7892947209580597
  8.0256238401116988 11.2876165706605658  9.2201326467473770
 11.2412971416024163  8.0530498212793606  4.2184987597300339
  2.9421753768823793  8.0024307496014924  0.5831577098121054
 11.3313402058927561  8.1029773508472438  9.1523640910705772
  7.8669130450792570  7.9130513758190064  0.6420365606228250
 11.3991884945708382  1.8159618818109091  5.1135469215547458
  3.8803791537970191 11.5623098637354857  2.8153199867131766
  1.5977324357862672  3.9886623653534299  0.7475752294194938
 11.3674460616659996  1.7692630894932095  8.3059600360709922
  3.8365128966895297 11.4890342954125853 10.3995302314959783
  6.8948489556699917 11.4345430847503557  2.8183398663464447
  9.2404734379360143  3.9392854410719989  0.6932862192122174
  7.0327508976191950 11.4574225131829746 10.4482839446776055
  1.5915419162985467 11.5782976826042301  4.9996207756868793
 11.4612486675181895  4.0489987159584659  2.8992338613532764
  3.9741013258374047  1.8573328386275805  0.4869485544545094
  1.7038874609609107 11.4940161155963505  8.1662256853318560
 11.4187097039922776  4.0414649987055240 10.4661751029638204
 11.4121810311300429  7.1001492823995429  2.8941236886933615
  3.8798100274040257  9.3598636403115538  0.5896462350981330
 11.3644663379048669  7.1013051272287111 10.4612351000938304
 11.4443975993768881  9.3708284992920365  8.1828413640350171
  9.1412471378672038  6.9293753160364533  0.5608605626536133
 11.3104536814285197  9.4140095999091766  5.1435102229397467
  1.6110047131776719  7.1088730788781014  0.7504583704128633
  9.2274053994553995 11.5738341946524752  8.2418804127829048
  7.0379216456829541  9.2878190373297933  0.8035152827054721
  9.1049234248605142 11.5568791059187035  5.1672656907328740
  7.0353858904959745  1.6883082431454983  0.5085695166334439
  6.7183229902200887  6.2962595146880913  3.8556932165808928
  5.5360256464479685  2.2268559306174245  3.6360310827436444
  7.9419713387529320  3.8811716279615895  3.8365222267837829
  3.6499704953699004  4.1351543419100505  3.3172216460445272
  5.5134496077313049  4.1470629620196000  5.3205705509639021
  5.9999510089132082  4.2578675616861883  1.9509063069992580
  4.2225527129795317  6.5449479354273201  4.6728096078453438
  4.6540319183416923  6.5122340093429401  1.9854344740877696
