 O Si Au 
 1.0000000000000000
     8.9848655900000001   -0.0000010900000000   -0.0000004000000000
    -0.0000010900000000    8.9848744800000002   -0.0000018100000000
    -0.0000004000000000   -0.0000018100000000    8.9848666399999999
 O   Si  Au 
  24  12   8
Cartesian
  1.3162311716594857  4.3202504462235174  7.8319626648239788
  5.8185231685022254  8.7850745663420362  3.3117285284716078
  7.5874200687377442  1.2318626266132033  4.6157515561159279
  2.9362660253264621  5.9080773480143014  0.0316165146539566
  4.4976421272424609  7.7434554257921553  1.1661403074129526
  0.0464917321192766  3.0043213876158830  6.0671228659507852
  1.2270973574288868  4.3760543629222264  1.4958633647473272
  5.6888482487866021  8.8645478655383005  5.9770293677788420
  4.2640990596764929  7.5418489254807586  7.6662586612860402
  8.7166734691637906  3.1727334705058703  3.2991272662542532
  7.6509720805785157  4.6360150414529206  7.6506930839762068
  3.1877440909794719  8.8839655662861396  3.2742111469825952
  1.1735700915149501  1.2315241718345764  4.4371228095679349
  5.7771818011411549  5.7543719528048873  0.0028019518277055
  7.6259516975466513  4.4104789983089070  1.2735159259296962
  2.9181847879394769  0.0394749162603867  6.0229752048013179
  4.2214885608215145  1.1478759896767732  7.8995802260356429
  8.7456477248316968  5.8021830415433078  3.2899706170644181
  1.3735017231664677  7.4926533993536486  4.5701160744619322
  5.8483473716587842  2.8947547058299841  8.8222895763135600
  4.6728872245326007  1.2336893337010584  1.5032319741082754
  0.2821367672348857  5.6759642088836735  5.8832411813075369
  7.6174067175792066  7.6193126125435766  4.9395417706295373
  3.2095309787178592  3.0888552765729300  0.3122344918395500
  2.2640926831185917  4.3897120437151544  0.2136878053218105
  6.6469090114062199  8.8987645632551420  4.7084536612668018
  8.8705680086227243  2.2353722272430785  4.6290446765742326
  4.4112041351488882  6.6001996575690063  0.0468130434517778
  4.5036246027575721  8.8592514421305406  2.3279693240955668
  0.0816785960382791  4.4088620493521065  6.8623872339870191
  4.2861302677540367  8.9287856706563993  6.8427102666642208
  8.7913125169078654  4.4849181427268308  2.3634918643771572
  6.6774182892644340  4.4008178443066370  8.9214318484603545
  2.2134296066831505  8.9302100378158951  4.5476070392643919
  4.5008578167721787  2.1286200465362501  0.1831845389959700
  0.0076871567515178  6.6475703998276350  4.6403779626335790
  4.9000477970040572  3.7973889178157685  2.8279680916229757
  4.2596962056918422  4.1602043457979292  6.7969851756199242
  4.3827003221564471  2.1958446396998510  5.0023492016766280
  4.3455527932214570  6.2331505025429790  5.2461515782601822
  6.2751414183272018  4.3325391949670582  5.0629828798126937
  2.5737906877697077  4.0851216268442023  4.6227717097777585
  5.9976727275865764  6.1957206482681553  3.0880534825776973
  3.2367624845946277  5.9006838111987738  2.8409565347240369
