H1 Ir16 Au16 O48
1.0
9.359554 0.000000 0.072972
-0.059738 10.818827 1.927388
0.000000 0.000000 34.408056
H Ir Au O
1 16 16 48
direct
0.604064 0.177032 0.640651 H
0.250000 0.000000 0.395833 Ir
0.750000 0.000000 0.395833 Ir
0.250000 0.250000 0.437500 Ir
0.750000 0.250000 0.437500 Ir
0.250000 0.500000 0.479167 Ir
0.750000 0.500000 0.479167 Ir
0.250000 0.750000 0.354167 Ir
0.750000 0.750000 0.354167 Ir
0.250000 0.000000 0.562500 Ir
0.750000 0.000000 0.562500 Ir
0.250000 0.250000 0.604167 Ir
0.750000 0.250000 0.604167 Ir
0.250000 0.500000 0.645833 Ir
0.750000 0.500000 0.645833 Ir
0.250000 0.750000 0.520833 Ir
0.750000 0.750000 0.520833 Ir
0.000000 0.000000 0.479167 Au
0.500000 0.000000 0.479167 Au
1.000000 0.250000 0.354167 Au
0.500000 0.250000 0.354167 Au
1.000000 0.500000 0.395833 Au
0.500000 0.500000 0.395833 Au
0.000000 0.750000 0.437500 Au
0.500000 0.750000 0.437500 Au
0.000000 0.000000 0.645833 Au
0.500000 0.000000 0.645833 Au
1.000000 0.250000 0.520833 Au
0.500000 0.250000 0.520833 Au
1.000000 0.500000 0.562500 Au
0.500000 0.500000 0.562500 Au
0.000000 0.750000 0.604167 Au
0.500000 0.750000 0.604167 Au
0.104063 0.927032 0.432317 O
0.604063 0.927032 0.432317 O
0.104063 0.177032 0.473984 O
0.604063 0.177032 0.473984 O
0.104063 0.677032 0.390651 O
0.604063 0.677032 0.390651 O
0.395936 0.322968 0.401016 O
0.895936 0.322968 0.401016 O
0.395936 0.572968 0.442683 O
0.895936 0.572968 0.442683 O
0.395936 0.822968 0.484349 O
0.895937 0.822968 0.484349 O
0.160388 0.169806 0.394264 O
0.660388 0.169806 0.394264 O
0.160388 0.419806 0.435930 O
0.660388 0.419806 0.435930 O
0.160388 0.669806 0.477597 O
0.660388 0.669806 0.477597 O
0.339612 0.830194 0.397403 O
0.839612 0.830194 0.397403 O
0.339612 0.080194 0.439070 O
0.839612 0.080194 0.439070 O
0.339612 0.330194 0.480736 O
0.839612 0.330194 0.480736 O
0.104063 0.927032 0.598984 O
0.604063 0.927032 0.598984 O
0.104063 0.427032 0.515651 O
0.604064 0.427032 0.515651 O
0.104063 0.677032 0.557317 O
0.604063 0.677032 0.557317 O
0.395936 0.072968 0.526016 O
0.895936 0.072968 0.526016 O
0.395936 0.322968 0.567683 O
0.895936 0.322968 0.567683 O
0.395936 0.572968 0.609349 O
0.895936 0.572968 0.609349 O
0.160388 0.919806 0.519264 O
0.660388 0.919806 0.519264 O
0.160388 0.169806 0.560930 O
0.660388 0.169806 0.560930 O
0.160388 0.419806 0.602597 O
0.660388 0.419806 0.602597 O
0.339612 0.830194 0.564070 O
0.839612 0.830194 0.564070 O
0.339612 0.080194 0.605736 O
0.839612 0.080194 0.605736 O
0.339612 0.580194 0.522403 O
0.839612 0.580194 0.522403 O
