 O Si Au 
 1.0000000000000000
     8.9848655900000001   -0.0000010900000000   -0.0000004000000000
    -0.0000010900000000    8.9848744800000002   -0.0000018100000000
    -0.0000004000000000   -0.0000018100000000    8.9848666399999999
 O   Si  Au 
  24  12   8
Cartesian
  1.3245815197275872  4.4260755842405457  7.6854140773154098
  5.7481320650624470  8.6679376126266678  3.2403729905643566
  7.5310228637812857  1.4312295945691111  4.3484458059123119
  3.1028459909809651  5.7193086891269838  0.1299221275415422
  4.2226205881102130  7.8629792670382503  1.1693829339490651
  8.6402188856701212  3.1706796405157416  5.9097040822201885
  1.2306817933103165  4.3223652771128531  1.3366142513460502
  5.8760481029391292  8.8777802336249607  5.9434966664460323
  4.3041074263181294  7.4369807243626749  7.5465699243891278
  0.1554965715909776  3.2702053914131302  3.3043920408181569
  7.6108044085921680  4.7303197930720877  7.8817785356762551
  3.0277206513864283  0.1484752818044733  3.2740239621229752
  1.1906437244020380  1.3905928436150337  4.8493079364581311
  5.7275099359862374  5.9003825196012016  0.1457184479531068
  7.6169479403751259  4.5101380080864173  1.5267464658200083
  3.0642945927115099  0.1348732347514149  6.0535284876339643
  4.7180900916945054  1.0047529697668605  7.9934640926160467
  0.0772469633609491  5.9927404582229444  3.1622899897730612
  1.4359396911863651  7.6383836457740486  4.6072569652520245
  5.8861669196816031  3.1420628985898973  0.0185867275430578
  4.6234054811170093  1.4020720794882966  1.5406319888715170
  0.0315187461754348  5.8255117142243273  5.9351798012271013
  7.8272657567090116  7.8284594772970877  4.7562481036328661
  3.1349451259413952  2.9315821256402561  0.0164326808012930
  2.2551548242926116  4.3153944055557316  0.0586733541297311
  6.6799452860985253  0.0486944938540039  4.5593198641697592
  8.8673126961204449  2.3118426895403297  4.5520748129073212
  4.3447265341100083  6.7455399813637706  0.0577072577822211
  4.4101182894694313  0.0251475608755136  2.3724575186857306
  8.8663648790340996  4.4502668758718604  6.8788606773907661
  4.5094438996084261  8.8635758546957533  6.8219090457060156
  0.0419170663090299  4.5442611573840663  2.3536188618377438
  6.6247609687566156  4.5507877694892471  0.1769657099921064
  2.1533311767054575  0.0982882951437131  4.6607437460959185
  4.5355001300309503  2.1775382897890032  0.1409889882463893
  0.0467290847464059  6.7341810902710186  4.5942443370466872
  4.5276724947100000  3.5624031275493109  2.8804739192095172
  4.5318139890683637  4.2513981777741678  6.8236427053633344
  4.9781670678479033  2.2600590956864370  5.0534183355746256
  4.3420366570856919  6.2619822674812138  5.1414341199520353
  6.4154237278298973  4.5098391765815702  4.8994725509403594
  2.6335005141865984  3.9679139740417324  4.8601306132258140
  5.5756810296456480  5.9813605032230974  2.8864283751663566
  2.9017008581357500  5.8235720429288174  2.9510626017501034
