Li Se  O 
 1.0000000000000000
    10.5685529999999996    0.0000000000000000   -0.6948750000000000
     7.3755790000000001    4.8645410000000000   -0.2638720000000000
     0.0000000000000000    0.0000000000000000   39.4946180000000027
 Li  Se  O  
  32   8  40
Cartesian
  8.4642967115549990  2.9464232964539998 16.5296128414790040
 13.7485732115549979  2.9464232964539998 16.1821753414790024
 10.7335693333630005  0.8131031636089999 17.9241472600500025
  5.4492928333629997  0.8131031636089999 18.2715847600500005
 10.1919369897880010  4.4349777069950003 11.8272925077750006
 15.4762134897879999  4.4349777069950003 11.4798550077750008
  9.4808137560460004  0.2111891829740000 14.7366136865520012
  4.1965372560459997  0.2111891829740000 15.0840511865520011
  8.1704555102119993  1.4024714930050000 18.8263679922250020
  2.8861790102119995  1.4024714930050000 19.1738054922250001
  6.7902762439540005  0.7617190170260000 15.8334813134480008
  1.5059997439540000  0.7617190170260000 16.1809188134479989
  9.8980957884449996  2.8910259035460002 14.1240476585210022
  4.6138192884449998  2.8910259035460002 14.4714851585210020
  5.5375206666370005  0.1598050363910000 12.6459477399500013
  0.2532441666370000  0.1598050363910000 12.9933852399500012
  8.0460362115550002  1.9735150964540000 24.4118233414790033
 13.3303127115549991  1.9735150964540000 24.0643858414790017
 12.4066113333629993  4.7047359636090000 25.8899232600500007
 17.6908878333630000  4.7047359636090000 25.5424857600500026
  9.7736764897879986  3.4620695069949998 19.7095030077749982
 15.0579529897879993  3.4620695069949998 19.3620655077750001
 11.1538557560459992  4.1028219829739996 22.7023896865520030
 16.4381322560459999  4.1028219829739996 22.3549521865520013
  7.7521950102119996  0.4295632930050000 26.7085784922250014
  2.4679185102119998  0.4295632930050000 27.0560159922250030
  8.4633182439539993  4.6533518170260004 23.7992573134480025
 13.7475947439540001  4.6533518170260004 23.4518198134480045
  9.4798352884449990  1.9181177035460000 22.0062581585210033
  4.1955587884450001  1.9181177035460000 22.3536956585210014
  7.2105626666369993  4.0514378363910000 20.6117237399499977
 12.4948391666370000  4.0514378363910000 20.2642862399499997
 11.1694405491180007  3.5124077772629998 17.1978151741290013
  5.8851640491180000  3.5124077772629998 17.5452526741290029
  7.1929519508819997  2.3250414227370002 13.4558453258709996
 12.4772284508819986  2.3250414227370002 13.1084078258709997
 10.7511800491180001  2.5394995772630002 25.0800256741290042
  5.4669035491180002  2.5394995772630002 25.4274631741290023
  6.7746914508820009  1.3521332227370000 21.3380558258710025
 12.0589679508819998  1.3521332227370000 20.9906183258710044
  7.2325197357090003  4.4642184629460004 16.7899248964570020
 12.5167962357090001  4.4642184629460004 16.4424873964570004
  9.8216186883229994  2.5613073145660001 17.9532058782390003
  4.5373421883230005  2.5613073145660001 18.3006433782390019
 11.5179664650360003  3.7864906108260001 13.2378936261579998
  6.2336899650359996  3.7864906108260001 13.5853311261579996
  6.8444260349640000  2.0509585891739999 17.4157668738420028
 12.1287025349639990  2.0509585891739999 17.0683293738420012
  8.2535170663289996  1.8567174670440001 14.7591491010490010
  2.9692405663290002  1.8567174670440001 15.1065866010490009
  7.0895478443889992  1.3351170583190000 12.0233393503800006
 12.3738243443889999  1.3351170583190000 11.6759018503800007
 10.1088754336709989  3.9807317329560004 15.8945113989510016
 15.3931519336709997  3.9807317329560004 15.5470738989510018
 11.2728446556109994  4.5023321416809994 18.6303211496200021
 16.5571211556110001  4.5023321416809994 18.2828836496200005
 13.8250503116769998  3.2761418854339999 12.3530171217610008
 11.1298727642909991  1.3732307370540000 13.8637356035430006
  5.8455962642910002  1.3732307370540000 14.2111731035430005
  6.8142592357089997  3.4913102629460000 24.6721353964570014
 12.0985357357089995  3.4913102629460000 24.3246978964570033
  9.4033581883230006  1.5883991145659999 25.8354163782390032
 11.0997059650359997  2.8135824108259997 21.1201041261580045
  5.8154294650359999  2.8135824108259997 21.4675416261580025
  6.4261655349640003  1.0780503891740001 25.2979773738420022
 11.7104420349640002  1.0780503891740001 24.9505398738420041
  7.8352565663289999  0.8838092670440001 22.6413596010490039
  2.5509800663290001  0.8838092670440001 22.9887971010490020
  6.6712873443889995  0.3622088583190000 19.9055498503800017
  1.3870108443889999  0.3622088583190000 20.2529873503800033
  9.6906149336710001  3.0078235329559999 23.7767218989510027
 14.9748914336710008  3.0078235329559999 23.4292843989510011
 10.8545841556110005  3.5294239416809998 26.5125316496200014
  5.5703076556109998  3.5294239416809998 26.8599691496200030
  8.1225133116770003  2.3032336854339999 20.5826651217610035
 13.4067898116770010  2.3032336854339999 20.2352276217610019
 10.7116122642909986  0.4003225370540000 21.7459461035429982
  5.4273357642909996  0.4003225370540000 22.0933836035429998
  3.0911842235430003  1.5883991145659999 26.8174616513650008
  4.1190816883229999  1.5883991145659999 26.1828538782390048
