 H  C  O Al Si 
 1.0000000000000000
    20.0899999999999999    0.0000000000000000    0.0000000000000000
     0.0000000000000000   19.7380010000000006    0.0000000000000000
     0.0000000000000000    0.0000000000000000   13.1419999999999995
 H   C   O   Al  Si 
   9   7 192   1  95
Cartesian
  7.9809900000000003  2.7562300000000000 11.9936100000000003
 11.7915600000000005  2.5924900000000002  1.2927100000000000
 11.9862000000000002  5.2865500000000001  1.0685899999999999
 10.2039899999999992  6.5562300000000002 12.6232900000000008
  8.3715600000000006  5.2340400000000002 11.4899600000000000
 10.6711200000000002  0.5217500000000000  0.0881400000000000
  9.0199700000000007  0.6582600000000000 12.3806100000000008
  9.1107099999999992  0.6321500000000000  1.0980300000000001
  9.7936300000000003  4.1619500000000000 10.9628899999999998
  8.6472400000000000  3.3915999999999999 12.6658000000000008
  9.7479899999999997  2.5177800000000001  0.1607400000000000
 11.0067299999999992  3.1950500000000002  0.7264800000000000
 11.1662999999999997  4.7080299999999999  0.5276600000000000
 10.2037899999999997  5.4191500000000001 12.7047100000000004
  9.2253699999999998  4.5757199999999996 11.8603100000000001
  9.6299399999999995  0.9824000000000001  0.1455000000000000
  7.0841399999999997  1.1736200000000001  9.2857400000000005
  6.1005300000000000  1.3731700000000000 11.6999300000000002
  3.9267900000000000  0.8880100000000000  0.0624200000000000
  1.8034800000000000  1.5056099999999999 11.7005900000000000
  2.0425499999999999  1.1262500000000000  9.0633800000000004
  4.5347099999999996  0.4454900000000000  9.7809299999999997
  7.1797599999999999 16.2577999999999996  9.8836999999999993
  6.1790799999999999 16.6227499999999999 12.2693700000000003
  3.7487900000000001 16.8351299999999995  0.1716300000000000
  1.6090100000000001 16.4005000000000010 11.7978400000000008
  2.1066400000000001 16.6841399999999993  9.2007100000000008
  4.5953900000000001 16.9085600000000014 10.1445699999999999
  6.5386899999999999 18.6942599999999999 10.6370000000000005
  1.6138300000000001 18.8152499999999989 10.7137499999999992
  8.7258899999999997  2.5140300000000000  7.7034500000000001
  8.4832000000000001 19.6387199999999993  7.3800200000000000
  7.9926100000000000 17.0325099999999985  7.4762199999999996
  4.1053899999999999  2.5511400000000002  8.2579100000000007
  3.7060000000000000  0.0598100000000000  7.2910500000000003
  4.1174499999999998 17.1343600000000009  7.5132800000000000
 19.7649399999999993  0.8663000000000000 10.1913599999999995
 19.7356100000000012 17.1055400000000013 10.1466799999999999
  2.9307300000000001 18.5882599999999982  2.7586400000000002
  3.9434700000000000 18.2683099999999996  5.1646700000000001
  6.0774299999999997 18.7469600000000014  6.7275200000000002
  8.1772299999999998 18.1962699999999984  5.1482500000000000
  7.9674899999999997 18.6174700000000009  2.5173500000000000
  5.4759300000000000 19.2818600000000018  3.2498900000000002
  2.8326899999999999  3.4089499999999999  3.3266300000000002
  3.8209200000000001  3.1776200000000001  5.7183500000000000
  6.2765199999999997  2.9050400000000001  6.7234499999999997
  8.4247399999999999  3.3302000000000000  5.1867500000000000
  8.0858200000000000  2.9368200000000000  2.5659800000000001
  5.4122500000000002  2.7692399999999999  3.6367900000000000
  3.4872200000000002  0.9989400000000001  4.2177899999999999
  8.4416200000000003  0.8911700000000000  4.2004500000000000
  1.3076600000000000 17.2119299999999988  1.1839599999999999
  1.5316600000000000  0.0767800000000000  0.8104700000000000
  2.0921699999999999  2.6693699999999998  0.8817000000000000
  5.9177099999999996 17.1805500000000002  1.7050399999999999
  6.2972099999999998 19.6620099999999987  0.7413400000000000
  5.8130400000000000  2.5829100000000000  0.8463400000000000
 10.3377099999999995 18.8253200000000014  3.6511100000000001
 10.4791399999999992  2.5436399999999999  3.6780499999999998
 12.9990299999999994 11.0167699999999993  3.8176199999999998
 14.0571699999999993 11.3525100000000005  1.4461500000000000
 16.1399000000000008 10.9484700000000004 12.9321199999999994
 18.1892899999999997 11.3402700000000003  1.4788699999999999
 18.0609099999999998 10.9338700000000006  4.1179100000000002
 15.5619099999999992 10.3527799999999992  3.3816999999999999
 12.9518199999999997  6.5018900000000004  3.3664499999999999
 13.9448699999999999  6.6359199999999996  0.9601499999999999
 16.3156900000000000  6.9716600000000000 12.9569600000000005
 18.4522599999999990  6.5095900000000002  1.3337800000000000
 18.0213299999999990  6.7778299999999998  3.9479899999999999
 15.5293700000000001  7.1025200000000002  3.0595900000000000
 13.6330700000000000  8.8678899999999992  2.3694999999999999
 18.4830000000000005  8.9117099999999994  2.4275899999999999
 11.3886199999999995 12.3640799999999995  5.4403899999999998
 11.6182499999999997  9.7466200000000001  5.7363499999999998
 11.9758499999999994  7.1195000000000004  5.7546200000000001
 16.0581400000000016 12.3907299999999996  4.9973799999999997
 16.3741500000000002  9.8640699999999999  5.8652699999999998
 16.0525100000000016  7.1935099999999998  5.6933800000000003
  0.2971300000000000 10.7358899999999995  2.9238300000000002
  0.3684500000000000  7.1909500000000000  2.9449900000000002
 17.1375700000000002  8.7524200000000008 10.3831000000000007
 16.0681800000000017  8.3768100000000008  8.0180699999999998
 14.0049399999999995  8.7721599999999995  6.3364200000000004
 11.9599799999999998  8.3811499999999999  8.0301600000000004
 12.0770999999999997  8.8080800000000004 10.6696000000000009
 14.5746900000000004  9.4094999999999995  9.9467900000000000
 17.1986500000000007 13.2141999999999999  9.9540100000000002
 16.2047899999999991 13.1380099999999995  7.5446900000000001
 13.8271400000000000 12.7843000000000000  6.4125100000000002
 11.7020199999999992 13.2441999999999993  7.9459200000000001
 12.1317500000000003 12.9009499999999999 10.5481599999999993
 14.6211000000000002 12.6303500000000000  9.6334800000000005
 16.5035300000000014 10.8746500000000008  8.9001599999999996
 11.6566200000000002 10.8095199999999991  8.9603500000000000
 18.7566300000000012  7.3719500000000000 11.9613200000000006
 18.5227800000000009  9.9751899999999996 12.3336400000000008
 18.1736100000000000 12.5999499999999998 12.3403399999999994
 14.0804799999999997  7.3561600000000000 11.5469600000000003
 13.7600400000000000  9.8780800000000006 12.4285200000000007
 14.1216600000000003 12.5500100000000003 12.2734500000000004
  9.7528900000000007  8.9784199999999998  9.4647400000000008
  9.6934299999999993 12.5099499999999999  9.5425400000000007
 12.9875799999999995 18.6210300000000011  3.8420600000000000
 14.0429099999999991 18.2533099999999990  1.4684900000000001
 16.1425200000000011 18.6601099999999995 12.9810099999999995
 18.2083699999999986 18.2274500000000010  1.4916199999999999
 18.0380099999999999 18.6729400000000005  4.1240899999999998
 15.5442400000000003 19.2883700000000005  3.3980000000000001
 12.9871800000000004  3.3679000000000001  3.4114000000000000
 13.9420599999999997  3.2664399999999998  0.9839400000000000
 16.3026300000000006  2.8953700000000002 12.9723400000000009
 18.4144900000000007  3.3704600000000000  1.3772800000000001
 18.0106900000000003  3.0309699999999999  3.9883299999999999
 15.5418199999999995  2.7370700000000001  3.0586700000000002
 13.6164000000000005  1.0099899999999999  2.3516300000000001
 18.4637099999999990  0.9326200000000000  2.4005200000000002
 11.3870100000000001 17.3005600000000008  5.5025599999999999
 11.6108100000000007  0.1900800000000000  5.7425300000000004
 12.0748899999999999  2.8063500000000001  5.8385999999999996
 16.0239800000000017 17.2316700000000012  4.9897499999999999
 16.3793800000000012  0.0033600000000000  5.8852500000000001
 16.0081099999999985  2.6675900000000001  5.7103299999999999
  0.2842700000000000 18.8612399999999987  2.9683799999999998
  0.3409300000000000  2.6332499999999999  2.9544500000000000
 17.1223099999999988  1.1272400000000000 10.4367199999999993
 16.1158000000000001  1.4929800000000000  8.0421200000000006
 14.0111699999999999  1.0524300000000000  6.4313000000000002
 11.9326600000000003  1.4945600000000001  8.0757600000000007
 12.0688700000000004  1.0480900000000000 10.7116500000000006
 14.5682600000000004  0.4887100000000000  9.9494100000000003
 17.1918199999999999 16.3720800000000004  9.9511199999999995
 16.2138400000000011 16.5047199999999989  7.5425899999999997
 13.8253400000000006 16.8406599999999997  6.4537699999999996
 11.6939899999999994 16.3616199999999985  7.9836299999999998
 12.1389800000000001 16.7245999999999988 10.5808900000000001
 14.6201000000000008 16.9855400000000003  9.6404499999999995
 16.5133800000000015 18.7404399999999995  8.9506200000000007
 11.6244800000000001 18.8002499999999984  8.9838699999999996
 18.7590399999999988  2.4686300000000001 12.0279500000000006
 18.5294099999999986 19.5976600000000012 12.3432300000000001
 18.1430800000000012 16.9803999999999995 12.3482199999999995
 14.0603899999999999  2.5146199999999999 11.5785000000000000
 13.7735000000000003 19.7174699999999987 12.4374599999999997
 14.1469799999999992 17.0488999999999997 12.2915799999999997
  9.7344100000000005  0.8970900000000001  9.5225600000000004
  9.6892099999999992 17.0800799999999988  9.5980000000000008
  7.1076400000000000  8.7030799999999999  9.2676099999999995
  6.0619600000000000  8.4162800000000004 11.6535399999999996
  3.9372400000000001  8.8481500000000004  0.1061900000000000
  1.8593299999999999  8.3653600000000008 11.6288300000000007
  2.0339100000000001  8.8084799999999994  8.9979300000000002
  4.5465700000000000  9.3976600000000001  9.7150900000000000
  7.1695200000000003 13.2738099999999992  9.7960499999999993
  6.1595899999999997 13.0486000000000004 12.1885499999999993
  3.7702900000000001 12.7485800000000005  0.1579700000000000
  1.6678700000000000 13.2424199999999992 11.7377800000000008
  2.1082399999999999 12.9123999999999999  9.1376299999999997
  4.5913700000000004 12.6524500000000000 10.0630900000000008
  6.5013199999999998 10.8748500000000003 10.6886500000000009
  1.6250800000000001 10.8097100000000008 10.7099399999999996
  8.7293099999999999  7.4074700000000000  7.6128999999999998
  8.4755699999999994 10.0192099999999993  7.3592599999999999
  8.0410199999999996 12.6244300000000003  7.3810700000000002
  4.0336699999999999  7.3614800000000002  8.1094000000000008
  3.7015799999999999  9.8851899999999997  7.2433399999999999
  4.1070000000000002 12.5480400000000003  7.4156399999999998
 19.7814200000000007  9.0178999999999991 10.1732200000000006
 19.7534899999999993 12.5129099999999998 10.1309000000000005
  2.9375599999999999 10.9987999999999992  2.7021299999999999
  3.9754100000000001 11.3647500000000008  5.0862200000000000
  6.0816400000000002 10.9210399999999996  6.6972899999999997
  8.1639700000000008 11.4202100000000009  5.0810899999999997
  7.9917999999999996 10.9115599999999997  2.4583400000000002
  5.4867800000000004 10.3192199999999996  3.1703800000000002
  2.9166699999999999  6.4951800000000004  3.1568399999999999
  3.8954499999999999  6.6116400000000004  5.5679999999999996
  6.2706900000000001  6.9935700000000001  6.6837600000000004
  8.3694900000000008  6.4924200000000001  5.1167100000000003
  7.9574499999999997  7.0209999999999999  2.5293100000000002
  5.4709099999999999  7.1836500000000001  3.4922200000000001
  3.5302099999999998  8.8708500000000008  4.1947900000000002
  8.4924400000000002  8.9717099999999999  4.2375100000000003
  1.3080600000000000 12.3287499999999994  1.0850000000000000
  1.5429100000000000  9.7195800000000006  0.7886500000000000
  1.9864999999999999  7.1116000000000001  0.7589500000000000
  5.9926500000000003 12.4065200000000004  1.6180399999999999
  6.3022299999999998  9.9195300000000000  0.6672200000000000
  5.9271500000000001  7.2602300000000000  0.8426700000000000
 10.3493600000000008 10.7931299999999997  3.6161500000000002
 10.4052100000000003  7.2318100000000003  3.5483400000000000
  8.8970599999999997 14.8082399999999996  8.4953800000000008
  3.9287999999999998 14.8123799999999992  8.6572899999999997
  5.3304799999999997 14.7969899999999992  0.8880000000000000
  2.1124600000000000 14.7823799999999999  0.6946900000000000
  1.1991700000000001  4.9060800000000002  1.8883700000000001
  6.2361399999999998  5.0320099999999996  2.1526600000000000
  4.7332000000000001  4.9538399999999996  7.4893599999999996
  7.9242999999999997  4.9536499999999997  7.2162699999999997
 11.1943500000000000  4.9275900000000004  4.5785400000000003
 16.1692399999999985  4.9210799999999999  4.4367400000000004
 14.7398299999999995  4.9366700000000003 12.2047100000000004
 17.9614599999999989  4.9248300000000000 12.4215599999999995
 18.9398499999999999 14.7995500000000000 11.1746400000000001
 13.9519000000000002 14.8058700000000005 10.9969599999999996
 15.3929600000000004 14.8151499999999992  5.6409399999999996
 12.1624900000000000 14.8240300000000005  5.8814399999999996
  6.3964600000000003  3.3250600000000001  2.2977500000000002
  8.4954599999999996  1.1037500000000000  8.4847400000000004
  6.0649699999999998  0.4851600000000000 10.3427500000000006
  5.5305799999999996  1.2069799999999999  0.0724100000000000
  2.3471099999999998  1.2841499999999999  0.0759600000000000
  1.2767200000000001  0.6436600000000000 10.4164800000000000
  3.5971099999999998  1.0441400000000001  8.5856700000000004
  8.4410100000000003 16.3164200000000008  8.8665099999999999
  6.1061500000000004 17.1254799999999996 10.7293900000000004
  5.2846700000000002 16.3558899999999987  0.4601000000000000
  2.1992500000000001 16.3134599999999992  0.1649300000000000
  1.2403599999999999 17.2551600000000001 10.4639199999999999
  3.6847099999999999 16.3908300000000011  8.8879300000000008
  1.5276400000000001 18.6352399999999996  1.9418599999999999
  3.9557199999999999 19.2214600000000004  3.8435100000000002
  4.4678199999999997 18.4844399999999993  6.6908599999999998
  7.6701600000000001 18.4080499999999994  6.6810000000000000
  8.7405600000000003 19.0556599999999996  3.8799100000000002
  6.4070999999999998 18.6912899999999986  2.0447600000000001
  1.6148300000000000  3.3864500000000000  2.2637100000000001
  3.9109200000000000  2.5768000000000000  4.2068899999999996
  4.7496799999999997  3.3998699999999999  7.0371499999999996
  7.8286699999999998  3.4209900000000002  6.6958500000000001
  8.8635099999999998  2.4362599999999999  3.8921299999999999
 11.6045900000000000 10.9617000000000004  4.6437299999999997
 14.0567700000000002 10.3918599999999994  2.7598199999999999
 14.5286899999999992 11.1813800000000008 13.0419900000000002
 17.7428899999999992 11.2102000000000004 13.0634099999999993
 18.7869600000000005 10.4816699999999994  2.7327499999999998
 16.5055399999999999 10.8835300000000004  4.6014099999999996
 11.6349199999999993  6.4606399999999997  4.3057100000000004
 14.0250299999999992  7.2872700000000004  2.4446699999999999
 14.7755899999999993  6.4754500000000004 12.7130500000000008
 17.8670399999999994  6.4527500000000000 12.9627400000000002
 18.8582800000000006  7.3514200000000001  2.6661199999999998
 16.4424600000000005  6.5034700000000001  4.2767999999999997
 18.5368400000000015  8.7964400000000005 11.2023700000000002
 16.0768200000000014  9.3589699999999993  9.3176799999999993
 15.6155600000000003  8.5504999999999995  6.4661299999999997
 12.4009499999999999  8.5149699999999999  6.4708600000000001
 11.3522599999999994  9.2413299999999996  9.2778600000000004
 13.6298600000000008  8.8639399999999995 11.1596600000000006
 18.5147399999999998 13.2655200000000004 10.8932699999999993
 16.1234299999999990 12.4552700000000005  9.0147499999999994
 15.3648299999999995 13.2797300000000007  6.1592599999999997
 12.2749900000000007 13.2978900000000007  6.4272299999999998
 11.2925900000000006 12.3636900000000001  9.2518399999999996
 13.7074099999999994 13.2177500000000006 10.8535799999999991
 11.5995600000000003 18.6875399999999985  4.6780299999999997
 14.0417000000000005 19.2311300000000003  2.7707299999999999
 14.5322999999999993 18.4191099999999999 13.0689299999999999
 17.7418799999999983 18.3729200000000006 13.0827299999999997
 18.7771200000000000 19.1087500000000006  2.7432599999999998
 16.4856499999999997 18.7359000000000009  4.6087699999999998
 11.6855499999999992  3.4000699999999999  4.3718199999999996
 14.0296500000000002  2.5840999999999998  2.4540099999999998
 14.7667500000000000  3.4034200000000001 12.7302599999999995
 17.8541799999999995  3.4091499999999999 12.9938900000000004
 18.8317599999999992  2.4883700000000002  2.6820200000000001
 16.4322100000000013  3.3347400000000000  4.2927000000000000
 18.5294099999999986  1.0628899999999999 11.2395600000000009
 16.0832499999999996  0.5226600000000000  9.3493499999999994
 15.6205800000000004  1.3078399999999999  6.5037099999999999
 12.4172300000000000  1.3729800000000001  6.5292100000000000
 11.3329699999999995  0.6280600000000000  9.3216199999999994
 13.6294599999999999  1.0044700000000000 11.1805599999999998
 18.5030900000000003 16.3314200000000014 10.8982700000000001
 16.1254400000000011 17.1594300000000004  9.0250100000000000
 15.3575999999999997 16.3475999999999999  6.1680700000000002
 12.2699700000000007 16.3375400000000006  6.4636300000000002
 11.2829499999999996 17.2440999999999995  9.2888999999999999
 13.7152399999999997 16.3965500000000013 10.8688300000000009
  8.5008800000000004  8.7932799999999993  8.4374300000000009
  6.0583400000000003  9.3512699999999995 10.3216000000000001
  5.5480499999999999  8.6166199999999993  0.0390300000000000
  2.3447000000000000  8.5169499999999996  0.0302300000000000
  1.2942000000000000  9.2482399999999991 10.3790300000000002
  3.5864699999999998  8.8661100000000008  8.5078700000000005
  8.4516600000000004 13.2834800000000008  8.8100000000000005
  6.0926900000000002 12.4525100000000002 10.6803699999999999
  5.3051700000000004 13.2491299999999992  0.4164700000000000
  2.2203499999999998 13.2670899999999996  0.1236700000000000
  1.2628600000000001 12.3660599999999992 10.4258100000000002
  3.6837000000000000 13.2256400000000003  8.8281399999999994
  1.5368900000000001 10.9295200000000001  1.8852199999999999
  3.9774200000000000 10.3859399999999997  3.7845000000000000
  4.4734400000000001 11.1819699999999997  6.6243600000000002
  7.6779999999999999 11.2366499999999991  6.6238299999999999
  8.7544199999999996 10.5320000000000000  3.8443000000000001
  6.4372400000000001 10.8874800000000000  1.9724800000000000
  1.6154400000000000  6.4405099999999997  2.1939299999999999
  3.9543100000000000  7.2989199999999999  4.0995200000000001
  4.7416400000000003  6.4817600000000004  6.9525100000000002
  7.8190299999999997  6.4709099999999999  6.6490600000000004
  8.8163000000000000  7.4270199999999997  3.8601999999999999
  6.3920399999999997  6.6183500000000004  2.2589800000000002
