 O Si Au 
 1.0000000000000000
    11.9587094399999998   -0.0000003700000000    0.0000010700000000
    -0.0000003700000000   11.9587162199999995   -0.0000031600000000
     0.0000010700000000   -0.0000031600000000   11.9587174399999991
 O   Si  Au 
  48  24   8
Cartesian
 10.3872909163085332  1.8873973573367053  6.2711346356499442
  4.9285654465750524 11.6583437293100243  3.1720033924061810
  1.4304470923900778  5.3335925048936890  0.1029971189560028
  4.7673419628584313 11.1047699059003353  9.7769542049712186
  8.2751382675120730  5.3496122661398209  0.7175969956164485
  1.4509348949401200 11.0652300194686717  6.3399390009586627
 10.5243647262114219  5.2926947647372575  3.1376701839970704
  4.8876230817486697  2.0181784626322310  0.6291947871329816
 11.1677294118363530  5.3538157957473800  9.7281806352278348
  4.9180227049936391  8.4762295501983580  0.0318101824564773
 11.2474339236297887  8.8130756519802009  6.3844042995113321
  8.1602876024359876 11.5799225782863182  6.2476834612316683
  0.3700436486161544  0.7476520583437949  4.7217439534050136
  2.8885404175210581  0.6754258277218351  1.7469504513652323
  0.2822823935236956  3.7794483259409204  1.8307462836283557
  0.2997350838735196  0.9312697831859477  7.8662056559433200
  3.0653197926389715  0.7810452570150768 11.0498589288186633
  0.0765501475288847  3.2871489395223987 11.1257970507967698
  9.6916256259153748  0.3626873117878578  4.2285499222201643
  7.0614892629806363  0.4271322821237375  1.6449020121835405
  9.7195939672748022  3.2770190286714000  1.5534979102948256
  9.6490345668882807  0.4987112442434435  8.3325182573285339
  6.6277881176958164  0.7022250306489337 10.9679790063693812
  9.4237688451483592  3.6838720707189840 10.8781400389389500
  0.0169319152266691 10.1779196088619841  4.1551658593742555
  0.2235307046541906  7.0604278451804898  1.8026900211090617
  3.4170830405981354  9.9214464526560295  1.7608088069144143
 11.9418282480051836 10.3655978255637464  8.4994344373810673
  0.2015570418067128  7.3826259632680893 11.1291329402974526
  2.8632594179250939  9.9757769936044411 11.1018023991556980
  9.3862948120870211  9.9255147970217177  7.8915957978640199
  6.8324391414997683 10.0853996892982387 11.0358958417738968
  9.6481051762059558  6.9697376286734958 11.0196233747148113
  9.3700829514753057  9.6599691124033971  4.7225411264049981
  6.3582430828017733  9.8143396738824862  1.7630166776149025
  9.6271680963044748  7.3722032760081087  1.6846075340160671
 10.8896271516521086  2.7662838392682025  3.9250275786775251
  2.3965415187823553 11.1153215184242136  3.8743334031723244
  2.4163834792868046  2.9293639899438371  0.4872555904277275
 10.7461683879985674  2.9122858207319591  8.7379641604162472
  2.3491944323757048 11.5429591078016998  8.8721240660756227
  7.3664782035007992 10.8525959097489082  3.8499029750714473
  7.3759938004390788  2.8744445490610455  0.3339028376708735
  7.2064945349242020 11.2730934595743335  8.7414680499662367
 10.9685360703296642  7.7212423923394349  3.9931060589418563
  2.4659275509084240  7.7469598296009563  0.5430199738393909
 10.9069960299949589  7.9204783258372675  8.9252906591169427
  7.4560614968165417  7.8095613842861189  0.1576800331410511
 10.7976838088939449  1.3857624818383227  4.7719109395223018
  3.4020942634431495 11.3450369263310975  2.5892960561644984
  1.0292988309293065  3.8126696482447651  0.3528656776521201
 10.7499193205345822  1.5308383561248347  7.8549348630012981
  3.1999349980449017 11.3554197390977567 10.2453971708531384
  6.3936107621029885 11.2174932843558075  2.6428187933059286
  8.6757568480209457  3.7905486423984014  0.4071779591989877
  6.3642458599869274 11.3520762542113136 10.1284689425231242
  1.0652019121761276 11.2807112016650688  4.7840406491754370
 10.8331726876849022  3.7365456585649026  2.6153302284918376
  3.3119737821930482  1.5899372792978475  0.4892018274082499
  1.0635003420969684 11.4486448356564949  7.9028864304787225
 10.8249361969183404  3.7868426389225318 10.1018444192064631
 10.7974442754091573  6.8400139253497274  2.6423336242527387
  3.3913334509819841  9.0594858714149940  0.3847873420713875
 10.9693843964308879  6.8888219249776741 10.1114339059074290
 10.8803609803338421  9.2329692322673047  7.8854428760732178
  8.7513161810383977  6.8950132003413689  0.3813772890362058
 10.9187002135022801  9.0662814438218842  4.8134337733341450
  1.0797380682573936  6.8731337575724334  0.4303084513176066
  8.5580624110947561 11.3066676369534029  7.8218737639676563
  6.4347762009298002  9.0878767561399894  0.2716910263704890
  8.7092927010453192 11.1547994360053266  4.7835880114199414
  6.4744134761969470  1.5209919570281638  0.4761942728633218
  7.7337246809739746  4.8301284535642903  3.2333088229773241
  3.8693771292815922  3.6580638127241927  3.9595038168645611
  6.2300381732648207  2.5454057446932770  3.1433999472399909
  4.8885814403189212  5.9241641812499521  4.5143270481889308
  6.4329287270283801  3.8906911011912824  5.4603867634509768
  5.2094563829678915  5.0677158834748921  2.0684153695186440
  7.4454575005751558  6.4384380625511533  5.3716747406333676
  6.4905150796803213  7.2845545120850437  2.8976143079841927
