Ti Cd Hg  H  C  O 
 1.0000000000000000
     8.2945100000000007    0.0000000000000000    0.0000000000000000
     0.0000000000000000   15.7981230000000004    3.1596250000000001
     0.0000000000000000    0.0000000000000000   37.9154959999999974
 Ti  Cd  Hg  H   C   O  
  20  18  38   6   3   1
Selective dynamics
Cartesian
  0.0000000000000000  6.3192492000000007 15.4821609999999996   F   F   F
  4.1472550000000004  6.3192492000000007 15.4821609999999996   F   F   F
  0.0000000000000000  3.1596246000000003 18.6417855999999986   F   F   F
  4.1472550000000004  3.1596246000000003 18.6417855999999986   F   F   F
  0.0000000000000000  0.0000000000000000 15.4821482281679987   F   F   F
  4.1472550000000004  0.0000000000000000 15.4821482281679987   F   F   F
  0.0000000000000000 12.6384984000000014 15.4821737718319987   F   F   F
  4.1472550000000004 12.6384984000000014 15.4821737718319987   F   F   F
  0.0000000000000000  9.4788738000000006 18.6417983718319995   F   F   F
  4.1472550000000004  9.4788738000000006 18.6417983718319995   F   F   F
  0.0000000000000000  6.3192492000000007 21.8014229718320003   F   F   F
  4.1472550000000004  6.3192492000000007 21.8014229718320003   F   F   F
  0.0000000000000000  3.1596246000000003 24.9610475718319975   T   T   T
  4.1472550000000004  3.1596246000000003 24.9610475718319975   T   T   T
  0.0000000000000000  0.0000000000000000 21.8014101999999959   T   T   T
  4.1472550000000004  0.0000000000000000 21.8014101999999959   T   T   T
  0.0000000000000000 12.6384984000000014 21.8013978281679996   F   F   F
  4.1472550000000004 12.6384984000000014 21.8013978281679996   F   F   F
  0.0000000000000000  9.4788738000000006 24.9610224281680004   T   T   T
  4.1472550000000004  9.4788738000000006 24.9610224281680004   T   T   T
  0.0000000000000000  6.3192492000000007 18.6417730281680001   F   F   F
  4.1472550000000004  6.3192492000000007 18.6417730281680001   F   F   F
  0.0000000000000000  3.1596246000000003 15.4821735718319982   F   F   F
  4.1472550000000004  3.1596246000000003 15.4821735718319982   F   F   F
  0.0000000000000000  0.0000000000000000 18.6417981718320007   F   F   F
  4.1472550000000004  0.0000000000000000 18.6417981718320007   F   F   F
  0.0000000000000000 12.6384984000000014 18.6417857999999974   F   F   F
  4.1472550000000004 12.6384984000000014 18.6417857999999974   F   F   F
  0.0000000000000000  9.4788738000000006 15.4821484281679993   F   F   F
  4.1472550000000004  9.4788738000000006 15.4821484281679993   F   F   F
  0.0000000000000000  6.3192492000000007 24.9610349999999990   T   T   T
  4.1472550000000004  6.3192492000000007 24.9610349999999990   T   T   T
  0.0000000000000000  3.1596246000000003 21.8013976281679973   F   F   F
  4.1472550000000004  3.1596246000000003 21.8013976281679973   F   F   F
  0.0000000000000000 12.6384984000000014 24.9610477718319999   T   T   T
  4.1472550000000004 12.6384984000000014 24.9610477718319999   T   T   T
  0.0000000000000000  9.4788738000000006 21.8014103999999982   F   F   F
  4.1472550000000004  9.4788738000000006 21.8014103999999982   F   F   F
  2.0736275000000002  4.7394369000000003 17.0619732999999982   F   F   F
  6.2208825000000001  4.7394369000000003 17.0619732999999982   F   F   F
  2.0736275000000002  1.5798123000000002 13.9023359281680001   F   F   F
  6.2208825000000001  1.5798123000000002 13.9023359281680001   F   F   F
  2.0736275000000002 14.2183107000000000 20.2215855281679993   F   F   F
  6.2208825000000001 14.2183107000000000 20.2215855281679993   F   F   F
  2.0736275000000002 11.0586860999999992 17.0619860718319991   F   F   F
  6.2208825000000001 11.0586860999999992 17.0619860718319991   F   F   F
  2.0736275000000002  7.8990615000000002 20.2216106718319999   F   F   F
  6.2208825000000001  7.8990615000000002 20.2216106718319999   F   F   F
  2.0736275000000002  7.8990615000000002 17.0619607281679997   F   F   F
  6.2208825000000001  7.8990615000000002 17.0619607281679997   F   F   F
  2.0736275000000002  4.7394369000000003 13.9023612718319995   F   F   F
  6.2208825000000001  4.7394369000000003 13.9023612718319995   F   F   F
  2.0736275000000002  1.5798123000000002 17.0619858718319968   F   F   F
  6.2208825000000001  1.5798123000000002 17.0619858718319968   F   F   F
  2.0736275000000002 14.2183107000000000 17.0619735000000006   F   F   F
  6.2208825000000001 14.2183107000000000 17.0619735000000006   F   F   F
  2.0736275000000002 11.0586860999999992 20.2215980999999978   F   F   F
  6.2208825000000001 11.0586860999999992 20.2215980999999978   F   F   F
  2.0736275000000002  4.7394369000000003 23.3812352718320007   T   T   T
  6.2208825000000001  4.7394369000000003 23.3812352718320007   T   T   T
  2.0736275000000002  1.5798123000000002 20.2215978999999990   F   F   F
  6.2208825000000001  1.5798123000000002 20.2215978999999990   F   F   F
  2.0736275000000002 14.2183107000000000 26.5408474999999981   T   T   T
  6.2208825000000001 14.2183107000000000 26.5408474999999981   T   T   T
  2.0736275000000002 11.0586860999999992 23.3812101281679965   F   F   F
  6.2208825000000001 11.0586860999999992 23.3812101281679965   F   F   F
  2.0736275000000002  7.8990615000000002 23.3812226999999986   F   F   F
  6.2208825000000001  7.8990615000000002 23.3812226999999986   F   F   F
  2.0736275000000002  4.7394369000000003 20.2215853281680005   F   F   F
  6.2208825000000001  4.7394369000000003 20.2215853281680005   F   F   F
  2.0736275000000002  1.5798123000000002 23.3812099281679977   T   T   T
  6.2208825000000001  1.5798123000000002 23.3812099281679977   T   T   T
  2.0736275000000002 14.2183107000000000 23.3812354718319995   F   F   F
  6.2208825000000001 14.2183107000000000 23.3812354718319995   F   F   F
  2.0736275000000002 11.0586860999999992 26.5408600718319967   T   T   T
  6.2208825000000001 11.0586860999999992 26.5408600718319967   T   T   T
  0.8186183699400001 15.0559587777060013 28.8647451407579965   T   T   T
  1.6957959804800000 14.0915307629250002 30.0838704999189979   T   T   T
 -0.0586504802100000 14.0128403122620000 30.0235816999939971   T   T   T
  1.8072078388000001 11.4224062858290001 29.6579530385349983   T   T   T
  0.0503062031500000 11.4223430933370000 29.6715141476029984   T   T   T
  0.9236849281100001 10.8081120710970016 28.2361092870749992   T   T   T
  0.8382017080500002 14.1095090268990013 29.4028639573929986   T   T   T
  0.9359608029100001 12.9517435828440011 28.4276363007240001   T   T   T
  0.9228222990700000 11.5577961999390002 29.0252634788890020   T   T   T
  1.0368137500000001 13.1342277016170002 27.2217939871629966   T   T   T
