 O Si Al Cu 
 1.0000000000000000
    20.0899999999999999    0.0000000000000000    0.0000000000000000
     0.0000000000000000   19.7379999999999995    0.0000000000000000
     0.0000000000000000    0.0000000000000000   13.1419999999999995
 O   Si  Al  Cu 
 193  94   2   2
Cartesian
 10.1167219027000002  1.2631356785600001  9.4290715632999991
 19.9569003347000020 11.2308100855399999  2.7102821509399999
 10.1036521523000005  8.6097384960799985  9.4208354719000003
 19.9613070762000007 18.3796286688200006  2.7099802791999998
  9.8737914128000011 18.3018054850399992  3.7327660228599995
  0.1297615109000000  8.4906198634600010 10.3973705749600001
  9.8698937518999994 11.3048921288000006  3.7356158655600002
  0.1248876769000000  1.4617421978800000 10.4010842413199995
  7.7438351479999996  1.4718956224600002 10.5940020988999990
  2.0574633079000000 10.6093777092599986  3.9567915201199995
  7.7365177672999996  8.4107682054200001 10.5902861983999994
  2.0610556008000001 19.0010742695600001  3.9577586398999998
 12.1855037156999995 18.4625197814800011  2.4933848744799998
 17.9498350016999986  8.6005253898199996  9.0619741059999992
 12.1841205192000004 11.1505224150800011  2.5027120147199997
 17.9537089563999999  1.2706112486800001  9.0577543412199990
  8.2371457006999993  2.8299667386600000  8.4135465117999999
  2.1886309178999999 12.2849590305800014  1.9305573030199998
  8.2236426089999988  7.0468086516800001  8.4087941017599999
  2.1968431071999999 17.3332768259199987  1.9267685958399998
 11.9971971321999984 17.0454697448600001  4.7070922185599997
 18.0753737954999991  7.1780570748199999 11.2726457794999995
 11.9869538439000003 12.5598702893399992  4.7212431298999995
 18.0335106552999989  2.6922527388599997 11.2728025635599991
  7.9904326656000002  0.1563549617600000  8.2872851410599999
  1.6227854202000001  9.7089757440400000  1.4448572383200000
  7.9719118955000008  9.7215859574799985  8.2830681360999989
  1.6225296745000000  0.1691090652200000  1.4462271603999999
 11.8455075872000002 19.7227518028599995  4.8156431672600002
 18.1779113474000020  9.8515131188999998 11.3951875699799992
 11.8423456220999999  9.8804845552999989  4.8144540790999999
 18.2146989499999989  0.0214267832800000 11.3890807454199994
  6.5895587737000003  0.6709911388199999 12.8499319291599985
  3.4580398678000002 10.4651142463000006  6.1879885006399995
  6.5836770244000000  9.2099819319799998 12.8435229700200004
  3.4667169397000004 19.1413861849200018  6.1909555699799999
 13.4934844610999995 19.1674632410000001  0.3004941955600000
 16.5801379771999997  9.2408164381999995  6.8763945845199990
 13.4629114990999987 10.4390750871799991  0.3024779804600000
 16.5820999666000013  0.6199415651399999  6.8757834815200001
  6.6524529295000008 18.8499443511599978 10.6297453162399993
  3.9665103345000001  8.8107820662599998  4.1165950860399994
  6.6192769061999996 10.7638249933200001 10.6125952690799998
  3.9681416425000000  1.0611904765400000  4.1185048814799998
 13.6264792565999997  0.9303656308799999  2.5467969851399999
 16.4749475407999988 10.7772067651799990  9.0847595741799996
 13.6203861604999990  8.9372400768000002  2.5473289733000000
 16.4995971672000010 18.8177964784200000  9.0848559050399995
  5.0535420635000001  1.2240360822199998 10.8283888803800004
  4.6231136126000001 11.3745698347400008  3.9919189033399998
  5.0464764104999995  8.6370714810999996 10.8270581214599986
  4.6264567894999997 18.2339953886599986  3.9957321860599997
 14.8587307469999992 18.3251811984399993  2.3704408073799996
 15.2708670519999998  8.4099952653399992  8.9911169102799988
 14.8559229685999981 11.2759945125200005  2.3661805652400001
 15.2782358631000008  1.4468984323600000  8.9916387791000005
  5.9325836296999999  2.3745927223200001  1.5974760728399999
  4.1719348034000001 12.4193489538000001  7.8441167937999987
  5.9399665038000009  7.4905976463000004  1.5859505388399999
  4.2472837546999997 17.1886176160600002  7.8311100249800001
 14.1038088170000009 17.3068942256000007 11.6635324909399998
 15.8757028198999990  7.4297980927599996  5.0909814720999993
 14.1153272175999991 12.2942647080600000 11.6686560310599994
 15.8805579701999999  2.4359832315799999  5.0911809676599997
  4.0396435597000000  0.8039360430600000  0.5522092297200000
  6.0171663467999998 10.7439721181600003  6.8174450921599989
  4.0385404178000002  9.0636799283799991  0.5526860214800000
  6.0368364658000004 18.9038626457600003  6.8079973083600001
 16.0269288886000005 18.8896076647800015 12.6560144910600005
 14.0161886928000001  9.0677982620800002  6.1492153951999997
 15.9963386491999984 10.6676871167199998 12.6965295685999990
 14.0189570948000011  0.7997940237600000  6.1476530742400000
  5.9509163574000006 19.5079245951400004  2.0688650252200000
  4.2509881498000004  9.9362493397999998  8.6631313591799994
  5.9495474247999995 10.0910361174599998  2.0723316219799996
  4.2550057479999994 19.6660494633600003  8.6669782854199990
 14.1953740145000005  0.1137577918200000 11.0005714217800001
 15.8548988213000008  9.9961113383399987  4.4657527934000001
 14.1808481409000002  9.7536108624800004 10.9976035639199985
 15.8593198267000002 19.6086410955999995  4.4647896162200000
  2.4654458044999998  2.7108844239599996  1.5740796330800000
  7.7571937925999999 12.3927999621399998  7.9379810318200006
  2.4545417560999998  7.1608467230999997  1.5625572531600000
  7.7423956995000003 17.2273187021799998  7.9634855798000004
 17.7867875751999982 17.1471277479199991 11.6519086547799997
 12.2718214051999990  7.2817295381599996  5.2151716636399996
 17.6871843687000023 12.4539544049199993 11.6828658185599998
 12.2738731969000003  2.5845408938199999  5.2112649412999996
  1.8525159764999999  1.6759778577400000 12.4070896349199984
  8.5541805663999995 10.7993229967999991  5.9789695903400002
  1.8462794377999998  8.2146911108000005 12.4010377439199999
  8.5712436060999995 18.7943514846399999  5.9860928171799994
 18.4229920699999994 18.6287692052599994  0.5994748269800000
 11.5710854195999993  8.8960010786399994  7.2094104989599996
 18.4117495051000013 10.9726042804600006  0.6056213403800000
 11.5758636252000002  0.9798446519000000  7.2105714632399991
  2.6379761127999997  1.6703197626599999  9.8567012040200002
  7.2613233720999997 11.5833358974199996  3.8027093238999998
  2.6349296651999996  8.1909770880800004  9.8492782081599994
  7.2643989502000004 18.0240460328800012  3.8104461507199998
 17.3983325585999999 18.0111344201799994  2.9991878623199999
 12.6802314169999999  8.1796103686399988  9.5079888790399991
 17.3931326639000012 11.5962013231999990  3.0047287923599999
 12.6920469486999998  1.6928887840000000  9.5106117593999997
  1.7525366851999999 19.1533053709800001 11.0289841629400005
  8.3231556114000007  9.1448690332999991  3.8854070673599996
  1.8485658807000001 10.4788793301199998 11.0141962588600002
  8.3240315353999996  0.7216826651800000  3.8979002468199995
 18.2696583594000010  0.7218749133000000  2.5474373947999998
 11.7665639322000004 10.6619745447599996  9.2122335572599994
 18.2686817845000000  9.1464903126199992  2.5570619384999995
 11.7862501232000003 18.9500164059199996  9.2107051426599984
  4.8368571496000001  2.5418150321200002  8.5988626423200003
  5.7007169037000001 12.7667870987999983  2.0567500725199999
  4.8391184799999998  7.3258964712400001  8.5936105734399995
  5.7038889138000002 16.8323484924800013  2.0697577612800000
 15.4935401921999993 16.9477984230399983  4.4936096279599997
 14.4813364808000014  7.0769365375000000 11.0817119696599988
 15.4792925650999997 12.6546805880599997  4.4937041189399993
 14.4946159707999982  2.7897367470599996 11.0853398187599996
  9.9349996158000007 17.0375867824200000  9.4725790742399987
  0.0980440216000000  7.3140376834600005  2.8374957909999998
  9.9149222725000001 12.5802772101599984  9.4914362671999992
  0.0989619337000000  2.5550134379600000  2.8355587916200000
 10.1195041668000005  2.6681394163999999  3.6060241806000000
 19.9522655716999999 12.4631227059199983 10.2268025282600004
 10.1223706080000007  7.2002804837800003  3.6049018537999995
 20.0330119024000020 16.9938436242000002 10.1577906007600003
  7.6065495303000006 16.3762536443800002 10.4841661254399998
  2.2784183513000000  6.6791135946599995  4.1441758071799999
  7.5336612022000002 13.2443174148999994 10.4412352854599995
  2.2740192440000002  3.1914443256800000  4.1520573274199997
 12.4534928644000011  3.3303272098399996  2.6504796113600002
 17.7120670390999990 13.1442157531400010  9.0882249881600004
 12.4579978460000014  6.5347662452000002  2.6535970251799998
 17.7158793175000007 16.4281770193199996  9.0812984970600006
  8.6711435419000011 14.8089046591599995  8.6229949026600003
  1.2338657219000000  4.9345325677000007  2.3957143190000001
 11.3084215272000002  4.9335174423600003  4.4389516556999995
 18.7492749653999979 14.7745786981199991 10.8987558794999995
  6.3252191743999999 17.2356757713799986 12.6630712193799990
  3.8321435928999996  7.1220250377999994  6.1668831057400002
  6.2974483656000002 12.3775296584399985 12.6387808607800007
  3.8331928936000002  2.7436270026400003  6.1720939087399991
 13.7296100661999994  2.5444153162399998  0.4623711748200000
 16.2920411493000010 12.3949845639799996  6.9947969078399996
 13.7331246108000009  7.3240562975000003  0.4623279376400000
 16.2996574691999996 17.2048094869800003  6.9971574738799998
  4.9928557987000000 16.7893417590399991 10.4097864794599992
  4.9123919333999995  6.4006542330199991  3.8219252934599997
  4.9045212741000004 12.7957547849799997 10.4110557338199996
  4.9082887517999998  3.4746098186599998  3.8286110231200001
 15.0920913654000000  3.1430019444199999  2.6434339223199999
 15.0721365711000015 13.0137580342800003  9.2723713492599984
 15.0958427710999992  6.7271353591399992  2.6402183377599999
 15.0820887552999991 16.5907095803199987  9.2756441015200011
  5.9914605890999990 14.8034463126400002  0.4234209152200000
  4.4697200337999998  4.9339649028199997  7.5708056424600008
 14.1401962268000005  4.9347258027199992 12.5588261155599987
 15.8807863934999993 14.8001834238600001  5.9713188436199998
  3.8943721669999998 16.4269489209599975  0.1220480455400000
  6.3607009269999999  6.5336666412199991  6.5662617833199999
  3.8819211885999998 13.1905712356599985  0.1220848431400000
  6.3634331669999993  3.3328288039600000  6.5756773692200001
 16.1972492968999973  3.3199665362599999 13.0699821028399992
 13.8254556390999994 13.1948958314600002  6.5225367722799996
 16.2018394601000004  6.5584990190200001 13.0484654947599985
 13.8321898071000007 16.4130859366599999  6.5164252165999992
  2.0614792988999997 14.8097308918400010  1.2166282723599999
  8.4825530867000012  4.9367558560200004  6.8285901652599987
 18.2816733847999977  4.9354120929800001 12.6562598521999998
 11.7416822663000016 14.8076574149399995  6.0946400861199992
  1.3795236461999998 16.7022888890799983 12.5753106518399989
  8.7461652271000005  7.3904466395399995  5.8436654722399997
  1.3661643988999999 12.9112254404399991 12.5817520717200004
  8.7487861685000006  2.4812764149400000  5.8481384833599996
 18.6105782260999995  2.6009563962800000  0.7213124690999999
 11.4107165928000001 12.4728101163199998  7.3094453002399993
 18.6065638423000017  7.2722947741600006  0.7251939587999999
 11.4237377254000005 17.1545237738999994  7.2929795570199989
  2.4639529166000003 16.7201912550799996  9.7721685745199984
  7.5355126965999997  6.6486568737600003  3.5757066379600002
  2.3585615802000000 13.0019235242399986  9.7576604636199988
  7.5315905259000004  3.2168319334200000  3.5819078220799998
 17.6633134307000006  3.1999225862000000  3.1881292135399999
 12.4746811846999996 13.1520114736199982  9.6931102451199997
 17.6644211933000008  6.6668511647799997  3.1923338650199997
 12.4852836822000004 16.4483016867399989  9.6715865403599999
  4.0799840787999999 14.8130616793399987  8.8573302989199991
  6.2142349828999990  4.9325023170200000  2.0722956128999996
 16.0552270599000018  4.9332541374399996  4.3600108157799999
 14.0952575084999996 14.8014841580599992 10.9601957808599995
  0.5915185087000000 14.7748325287999993  7.5833364080400001
  8.5234426655000011  1.4133815319400000  9.1623848998999993
  1.4489189259999999 10.9550672648399985  2.4824591413599997
  8.5098549948999995  8.4645931392799998  9.1555423861799987
  1.4525057946000000 18.6592642178800006  2.4822606971600001
 11.4770762735999998 18.3951210250199999  3.9604067529000000
 18.6176422718999994  8.5336214650199995 10.5532667614399998
 11.4724075585000005 11.2126797456400009  3.9673566367599995
 18.6150382060999995  1.3545739373600001 10.5508718947800002
  6.5084373627000005  0.6216200846600000 11.2324085238400002
  3.5344001496999997 10.3186328242799998  4.5655689117999998
  6.4958600182000001  9.2558048832599997 11.2253765024799996
  3.5376444838000003 19.2905496063800008  4.5670054638199993
 13.5414344695000004 19.1616705327599988  1.9240015477399999
 16.5675168365000012  9.2522804659800002  8.5000574065599999
 13.5324168721000007 10.4446796922799994  1.9259870410999997
 16.5754083893999997  0.6063207661000000  8.4993148835600003
  5.6053528880999997  0.9136662959799999  0.9837963208999999
  4.4900872758000006 10.8843844999399995  7.3770724552000004
  5.6052333526000000  8.9542836424200001  0.9803181591799999
  4.5146022991999999 18.7348996417400002  7.3713046942400000
 14.4669024185000001 18.7988406953599991 12.1914397970999993
 15.5644219311000001  8.9259876403799989  5.6409209469999997
 14.4483906889000000 10.7956244903599998 12.1995865229000007
 15.5677805773000006  0.9395059039200000  5.6407533865000001
  2.5036875212999998  1.3251708309000001  0.7076754099600000
  7.5765137748999996 10.9177105339000011  7.2706336887399994
  2.5002193845999998  8.5511724946199994  0.7045762635199999
  7.5884442213999996 18.6994134810599988  7.2769158275799990
 17.5997759930999997 18.6160275367399990 12.3495008652399996
 12.4387092360999993  8.7789738844999992  5.8409713622400004
 17.5579178754000012 10.9750525819800000 12.3741522345800004
 12.4416982262999998  1.0888953254800000  5.8400215898999992
  1.5941662106999999  1.0064587789599999 10.9369467943399989
  8.4983974670000002 10.6942923616799987  4.3550441911400002
  1.6158736566000000  8.8935802129399999 10.9301186053999988
  8.5047611753999988 18.9096979880799978  4.3618814480600001
 18.5127419350999993 18.8884229900200005  2.2003446899000001
 11.5286091325999998  9.0972899921599986  8.8212368472799998
 18.5080477056999975 10.7177010375399995  2.2074995889599998
 11.5397725428999998  0.7767542511200000  8.8225448705399998
  4.1750077697999997  1.3427773242800001  9.4658911104399994
  5.8806566049000004 11.4341985301199998  2.9619816775399999
  4.1733593852999995  8.5221769778600009  9.4610798242400005
  5.8843951529999998 18.1702363194000007  2.9669967961599997
 15.9099014241999992 18.2405245216799976  3.6053542014400000
 14.1505427777000001  8.3681633376600004 10.1661163205999987
 15.9025653597999987 11.3641057340400007  3.6053643207800001
 14.1616419000000011  1.4984090857199999 10.1691634247200007
  8.4991054386000009 16.3582312713399993  9.1214421816799991
  1.5041778772999999  6.5083532483599997  2.7188566488400001
  8.4814157917999999 13.2593546128200011  9.1149199384999999
  1.5051713278000001  3.3618393216000002  2.7233993125599998
 11.5312019479999996  3.3803290904799996  3.9904410854400001
 18.5140156411000021 13.2087159842999995 10.5083505595200002
 11.5327293907000001  6.4867515864000005  3.9914971765600002
 18.5597969340000013 16.3394367477399989 10.4720749597599987
  6.3975052043000007 17.3063387982799988 11.0446636202999997
  3.7464924896000000  7.2545424169600006  4.5485349084999998
  6.3366831311000000 12.3055262239599994 11.0188913697800004
  3.7433895891000000  2.6167102809800000  4.5532208200199999
 13.7206716233999995  2.4872327512000001  2.0889103864000003
 16.3775785431999985 12.3266559503399993  8.6165905432200010
 13.7218912872999983  7.3806706055200006  2.0888466477000001
 16.3936427080999998 17.2662207211400016  8.6192747967200010
  5.4534381341999998 16.3248515500200000  0.5533788677200000
  4.8753580273999999  6.4677877107600006  7.2251498838399995
  5.4424507122999994 13.2848705175599999  0.5448949182000000
  4.8763466563000000  3.3993612596000000  7.2298060944399998
 14.6542543252000002  3.3999310956600000 12.5728494180799988
 15.3562216269000000 13.2663558788000007  5.9845906865799998
 14.6539461445999990  6.4695882111200005 12.5683884975999991
 15.3649782551999987 16.3374422228400000  5.9844710943799999
  2.3491305305999997 16.3187791543199978  0.6570982915400000
  7.9452677338999997  6.4693858966199995  6.9202389249199996
  2.3396769802000001 13.2983142667400003  0.6603387144800000
  7.9486002630999995  3.4028860716400002  6.9249043349199990
 17.7778696242000009  3.3918398973200001 12.7125317934800002
 12.2444652540000014 13.2634630775199991  6.1574761935600000
 17.7861915048999997  6.4815338460999996 12.7075741053999991
 12.2524277246000004 16.3496482020400009  6.1477747691599998
  8.6731348627000013  7.5963962870000001  4.2262265699799997
  8.6718772286999997  2.2719028166199999  4.2314267279599997
 18.6776924872999999  2.2767072432000002  2.3164245589800001
 11.3960559152999998 12.2163430316599992  8.9208153583200005
 18.6763631319999988  7.5923044022199999  2.3205713856599997
 11.4145925564999988 17.3985525631000009  8.9053921699600007
  3.9754331071000002 16.3908112089000007  9.2243385220400000
  6.1474608454000004  6.4052490420400003  2.7652969285000002
  3.8992224957000001 13.2421018243999988  9.2230377268799995
  6.1436913586999999  3.4630119672399999  2.7721429905599999
 16.1774311146000009  3.4044167535399996  3.8195494826999998
 13.9345728669000000 13.2863038911199993 10.3965008373999996
 16.1770031976000013  6.4620532296200004  3.8198793469000001
 13.9376641152000005 16.3152636191399978 10.3907559435199985
  1.4407935254999999 17.4758925606399984 11.0485486583399997
  1.4353545598000002 12.1365878924399997 11.0544302290199994
  0.9597651952000000 16.0987527600199982  8.6872814926400004
  0.6892171832000000 13.4185358588000003  8.7166296813599988
