Sc  H Pb  C  O 
 1.0000000000000000
     9.1291100000000007    0.0000000000000000    0.0000000000000000
    -0.0000000000000000    9.6828830000000004    3.2276280000000002
     0.0000000000000000    0.0000000000000000   38.7315340000000035
 Sc  H   Pb  C   O  
  34   9  10  16   1
Selective dynamics
Cartesian
  0.0000000000000000  6.4552585609610000 15.7077899758760005   F   F   F
  4.5645550000000004  6.4552585609610000 15.7077899758760005   F   F   F
  0.0000000000000000  3.2276244390389999 18.9354112983980016   F   F   F
  4.5645550000000004  3.2276244390389999 18.9354112983980016   F   F   F
  0.0000000000000000  0.0000000000000000 15.7078060029040021   F   F   F
  4.5645550000000004  0.0000000000000000 15.7078060029040021   F   F   F
  2.2822775000000002  8.0690659390389996 17.3216103755760003   F   F   F
  6.8468325000000005  8.0690659390389996 17.3216103755760003   F   F   F
  2.2822775000000002  4.8414415000000002 20.5492349257260010   F   F   F
  6.8468325000000005  4.8414415000000002 20.5492349257260010   F   F   F
  2.2822775000000002  1.6138170609610001 17.3215908986980018   F   F   F
  6.8468325000000005  1.6138170609610001 17.3215908986980018   F   F   F
  2.2822775000000002  4.8414415000000002 17.3216200029040017   F   F   F
  6.8468325000000005  4.8414415000000002 17.3216200029040017   F   F   F
  2.2822775000000002  1.6138170609610001 14.0939759758760008   F   F   F
  6.8468325000000005  1.6138170609610001 14.0939759758760008   F   F   F
  2.2822775000000002  8.0690659390389996 20.5492252983980030   F   F   F
  6.8468325000000005  8.0690659390389996 20.5492252983980030   F   F   F
  0.0000000000000000  6.4552585609610000 22.1630585530540003   F   F   F
  4.5645550000000004  6.4552585609610000 22.1630585530540003   F   F   F
  0.0000000000000000  3.2276244390389999 25.3906798755760015   T   T   T
  4.5645550000000004  3.2276244390389999 25.3906798755760015   T   T   T
  0.0000000000000000  0.0000000000000000 22.1630358485480023   F   F   F
  4.5645550000000004  0.0000000000000000 22.1630358485480023   F   F   F
  2.2822775000000002  8.0690659390389996 23.7768402212200023   F   F   F
  6.8468325000000005  8.0690659390389996 23.7768402212200023   F   F   F
  2.2822775000000002  1.6138170609610001 23.7768594758760017   T   T   T
  6.8468325000000005  1.6138170609610001 23.7768594758760017   T   T   T
  2.2822775000000002  4.8414415000000002 23.7768498485480038   F   F   F
  6.8468325000000005  4.8414415000000002 23.7768498485480038   F   F   F
  2.2822775000000002  1.6138170609610001 20.5492445530540024   F   F   F
  6.8468325000000005  1.6138170609610001 20.5492445530540024   F   F   F
  2.2822775000000002  8.0690659390389996 27.0044938755759993   T   T   T
  6.8468325000000005  8.0690659390389996 27.0044938755759993   T   T   T
  5.8287906692400009  3.8511343240580005 28.5377364460380036   T   T   T
  6.9965955495500003  2.0434175310220000 29.8296783735380018   T   T   T
  6.8716910665300004  0.9653640693340000 28.4330192389420020   T   T   T
  4.3103914484899999  1.1812826773509999 28.4423632252360044   T   T   T
  4.4329953957899999  2.2289803008340003 29.8763498752020062   T   T   T
  3.5851932083100002  2.7815243363460000 28.4157191850160018   T   T   T
  8.3961976618700014  3.6139908365050002 28.4361468559020025   T   T   T
  8.2998946804799996  2.4707328406949998 27.0813887847160011   T   T   T
  9.1119929187500013  2.0000285322989999 28.5801442162780006   T   T   T
  0.0000000000000000  6.4552585609610000 18.9354048986980033   F   F   F
  4.5645550000000004  6.4552585609610000 18.9354048986980033   F   F   F
  0.0000000000000000  3.2276244390389999 15.7077963755760006   F   F   F
  4.5645550000000004  3.2276244390389999 15.7077963755760006   F   F   F
  0.0000000000000000  0.0000000000000000 18.9354209257260031   F   F   F
  4.5645550000000004  0.0000000000000000 18.9354209257260031   F   F   F
  0.0000000000000000  6.4552585609610000 25.3906734758759995   T   T   T
  4.5645550000000004  6.4552585609610000 25.3906734758759995   T   T   T
  0.0000000000000000  3.2276244390389999 22.1630262212200044   F   F   F
  4.5645550000000004  3.2276244390389999 22.1630262212200044   F   F   F
  2.2822775000000002  6.4552585609610000 15.7077899758760005   F   F   F
  6.8468325000000005  6.4552585609610000 15.7077899758760005   F   F   F
  2.2822775000000002  3.2276244390389999 18.9354112983980016   F   F   F
  6.8468325000000005  3.2276244390389999 18.9354112983980016   F   F   F
  2.2822775000000002  0.0000000000000000 15.7078060029040021   F   F   F
  6.8468325000000005  0.0000000000000000 15.7078060029040021   F   F   F
  2.2822775000000002  6.4552585609610000 22.1630585530540003   F   F   F
  6.8468325000000005  6.4552585609610000 22.1630585530540003   F   F   F
  2.2822775000000002  3.2276244390389999 25.3906798755760015   T   T   T
  6.8468325000000005  3.2276244390389999 25.3906798755760015   T   T   T
  2.2822775000000002  0.0000000000000000 22.1630358485480023   F   F   F
  6.8468325000000005  0.0000000000000000 22.1630358485480023   F   F   F
  5.7420915115700000  2.8008126392820003 28.2373992028120000   T   T   T
  6.9581893837800006  2.0165378478139999 28.7346088017820023   T   T   T
  4.4470907416300003  2.2137394429919999 28.7824099733880026   T   T   T
  8.2647932525300014  2.5600671192530000 28.1715588184960026   T   T   T
  5.7056937500000000  2.7532890495180000 26.8137054752220010   T   T   T
