Rb  H Ir  O 
 1.0000000000000000
     9.8205019999999994    0.0000000000000000    0.0000000000000000
     9.8205019999999994    5.6698690000000003    0.0000000000000000
     0.0000000000000000    0.0000000000000000   34.7207160000000030
 Rb  H   Ir  O  
  12   2  12  37
Cartesian
 16.3675066068339987  5.6698690000000003 11.8050434400000022
 11.4572556068339999  2.8349345000000001 11.8050434400000022
  0.0000000000000000  0.0000000000000000 16.4344606664280022
  4.9102509999999997  2.8349345000000001 16.4344606664280022
  3.2734973931659996  0.0000000000000000 14.1197694135720013
  8.1837483931659989  2.8349345000000001 14.1197694135720013
 16.3675066068339987  5.6698690000000003 18.7491866400000013
 11.4572556068339999  2.8349345000000001 18.7491866400000013
  0.0000000000000000  0.0000000000000000 23.3786038664280014
  4.9102509999999997  2.8349345000000001 23.3786038664280014
  3.2734973931659996  0.0000000000000000 21.0639126135720005
  8.1837483931659989  2.8349345000000001 21.0639126135720005
  9.0021202863319996  0.6817677280360001 26.3755919094000042
  9.0021202863319996  2.2728690462920000 26.2043146173720025
 16.3675066068339987  5.6698690000000003 15.2771150400000018
 11.4572556068339999  2.8349345000000001 15.2771150400000018
  9.8205019999999994  5.6698690000000003 12.9623890664280026
  4.9102509999999997  2.8349345000000001 12.9623890664280026
 16.3675066068339987  5.6698690000000003 22.2212582400000009
 11.4572556068339999  2.8349345000000001 22.2212582400000009
  9.8205019999999994  5.6698690000000003 19.9065322664280018
  4.9102509999999997  2.8349345000000001 19.9065322664280018
 13.0939993931659995  5.6698690000000003 17.5918410135720009
  8.1837483931659989  2.8349345000000001 17.5918410135720009
 13.0939993931659995  5.6698690000000003 10.6476978135720017
  8.1837483931659989  2.8349345000000001 24.5359842135720037
 15.5491248931659989  4.2524017500000006 14.1197694135720013
 10.6388738931659983  1.4174672500000001 14.1197694135720013
  4.0918791068339999  1.4174672500000001 11.8050434400000022
  9.0021301068340005  4.2524017500000006 11.8050434400000022
  7.3653765000000000  1.4174672500000001 16.4344606664280022
 12.2756274999999988  4.2524017500000006 16.4344606664280022
  5.7286228931659995  1.4174672500000001 14.1197694135720013
 10.6388738931660001  4.2524017500000006 14.1197694135720013
 13.9123811068339993  4.2524017500000006 11.8050434400000022
  9.0021301068339987  1.4174672500000001 11.8050434400000022
  2.4551254999999998  1.4174672500000001 16.4344606664280022
  7.3653765000000000  4.2524017500000006 16.4344606664280022
 18.0042503931659965  5.6698690000000003 14.1197694135720013
 13.0939993931659977  2.8349345000000001 14.1197694135720013
 11.4572556068339999  5.6698690000000003 11.8050434400000022
  6.5470046068339993  2.8349345000000001 11.8050434400000022
 14.7307530000000000  5.6698690000000003 16.4344606664280022
  9.8205019999999994  2.8349345000000001 16.4344606664280022
 15.5491248931659989  4.2524017500000006 21.0639126135720005
 10.6388738931659983  1.4174672500000001 21.0639126135720005
  4.0918791068339999  1.4174672500000001 18.7491866400000013
  9.0021301068340005  4.2524017500000006 18.7491866400000013
  7.3653765000000000  1.4174672500000001 23.3786038664280014
 12.2756274999999988  4.2524017500000006 23.3786038664280014
  5.7286228931659995  1.4174672500000001 21.0639126135720005
 10.6388738931660001  4.2524017500000006 21.0639126135720005
 13.9123811068339993  4.2524017500000006 18.7491866400000013
  9.0021301068339987  1.4174672500000001 18.7491866400000013
  2.4551254999999998  1.4174672500000001 23.3786038664280014
  7.3653765000000000  4.2524017500000006 23.3786038664280014
 18.0042503931659965  5.6698690000000003 21.0639126135720005
 13.0939993931659977  2.8349345000000001 21.0639126135720005
 11.4572556068339999  5.6698690000000003 18.7491866400000013
  6.5470046068339993  2.8349345000000001 18.7491866400000013
 14.7307530000000000  5.6698690000000003 23.3786038664280014
  9.8205019999999994  2.8349345000000001 23.3786038664280014
  9.0021301068339987  1.4174672500000001 25.6933298400000005
