 O Si Au 
 1.0000000000000000
    18.1541673199999991    0.0003963400000000    0.0000389000000000
    -9.0767404299999992   15.7217942399999995    0.0000413600000000
     0.0000163600000000    0.0000295300000000    7.6305892899999996
 O   Si  Au 
  72  36   8
Cartesian
 15.3352316129857940  4.3829706989227555  0.1695100140431935
  6.2331347113522630 11.5165863369784685  0.1490849868016232
  4.6153817154068806  0.1394068637096457  0.1960325604162705
 11.3544271892586242 11.5356516355975813  4.0493112780180818
  2.2051371141674618  4.5788514823634712  4.0829045247799964
 12.7295305596517068  0.1931575020172057  4.4252687096436620
 12.8982011383226496  0.2095636315200937  0.0800282320582001
  2.2429211324710581  4.5557181759414993  0.2219576580414262
 11.0531433542966813 11.7464080380927332  0.2108771932900717
  4.7065214761395202  0.0543165001370763  4.0409000307533010
  6.2643675127675706 11.5849637544439847  3.9025251854399459
 15.2062002239580725  4.5736670018957666  4.1506899344056034
 -2.1123887301663284  6.9397882614042752  7.2138766620722672
  3.6616006923600244 10.8777126842241696  7.2325844053072403
 -2.5295108238404191 14.1012652577871460  7.3408954733092973
 10.6095441895367095  8.9611968004429734  3.5082856024793139
  4.7680367765015967  5.2167618366340838  3.5045968361791382
 10.7104936409827349  1.7270312871052842  3.5582501784680036
  1.8527105093608494 14.2963703135400646  7.2393276708151539
  1.6974472658351918  7.0669922967947638  7.2702677415701844
 -4.7513991109491416 10.7897945678198202  7.0527231980628295
  6.4873091797359050  1.9167631114529724  3.5149919885296979
  6.9904262974116671  9.1792605684389805  3.2589439211595450
 12.8441306885622044  5.4870317598662650  3.5037268327581468
 10.9246233566318800  9.2539447798265311  0.8979625456212557
  4.6953451497061831  5.3328938337814051  0.8491222974318112
 10.8037842511835720  1.6492606960185774  0.9938562483337360
 -2.1929044887350448  7.1984030141859137  4.4396254389082763
  3.7321020844770061 10.7722940383260664  4.4748833037264406
 -2.5100195937886727 13.9328133286162821  4.6568641533772430
  6.6160899129723596  1.6798049921707279  0.7918291445825464
  6.5495545854667805  8.9285650972898658  0.6756584249486978
 13.0428562728053716  5.3972276784633273  0.9856188631199096
  1.7762440445012664 14.0634462224325976  4.4351502835907306
  1.5914110528071201  7.0213395145129107  4.6062563943068762
 -4.2168552104866492 10.6959196514940444  4.4433201281997921
 -0.2876174034366389  5.2782034493228185  0.4357304913411879
  4.4180785042045780 13.3864830815082918  0.1523562825585527
 -4.9986767141752155 13.3133899933715867  0.5098994376858227
  8.8234243756669599 10.9107160830351013  4.0189397968858378
  3.9080207515252843  2.5958629893941652  4.1035069864176776
 13.1772979093245031  2.8110461485468097  4.2656480191581467
  8.6430029535477502 10.4205245844014946  0.2687968086846671
  4.2659411213644312  2.7755891953671261  0.4425654400021439
 13.2137989387276598  2.8588904488834732  0.3012177377302967
 -0.3275642454278841  5.4058416050147260  3.8973629156383551
  4.4186512658180499 13.3945129388402915  4.0916693250731031
 -4.8953428042038212 13.2614779115876331  3.7182398622967683
 -2.2544639184672648  6.1316156027887212  2.0458903647224229
  4.3998098844117308 11.5115074252849059  2.1022036213340503
 -3.0814032554739654 14.5971541284768840  2.1094735379972991
 10.3738450646693536  9.8267390551445075  5.9847751387776276
  3.9915325679208893  4.5710036284114546  6.0138255081213012
 11.5997509779703041  1.9322221895520635  6.1071357026436086
  2.8655027927974248 14.4813220656871096  2.1255232706946239
  1.4758260870132878  6.3386642750217748  2.1516904876175760
 -5.1937251905483270 11.1538819937204110  2.0022811679480448
  5.5783678310441909  1.8209771583026892  5.9945723993782041
  6.9921509422030601  9.9217917472074095  5.8163109456473849
 13.2383560515133443  4.7909834103808731  6.0589200628213176
  6.7426986513546394  4.0658198629523934  1.8714537910218600
 11.6496131138121495  3.7739100509184071  2.1677227890288617
  8.8473315104450521  7.9257898413969574  1.6450117617841240
  1.6674902696997145 11.8438748383167631  5.7991029679167019
 -2.3596245439312065 11.7307510120353662  6.0507100653213257
 -0.3379836428705459  8.2438892217073683  5.9924189274518431
  8.6553754094877213  2.3663885917169489  2.2332328156431034
 11.3820526202372516  6.9817399990930920  1.9679631246114346
  6.4898877868788087  6.7283187951588914  2.2304017365294797
 -0.2906874982849165 13.4642961372098071  5.9267026854409259
 -2.8921699194025789  9.1163684776335270  6.1883219079449931
  2.0622585438286833  9.2452736365743853  5.8012652760494889
 -1.8544783881493763  5.7182762094608126  0.5515638523008805
  4.6877780603532191 11.8255377926749379  0.4976043897409377
 -3.8165727253149480 14.4313834751789347  0.6480739091190564
 10.2842726669495903 10.2671791917137956  4.4172406404978775
  3.7716836346039089  4.2515577460906515  4.4116276711189650
 12.0234158386583250  1.6830658584757572  4.6075659061060508
  3.2101226098038258 14.4782721322192884  0.5407587272543932
  1.2445570444302827  5.8148744835249460  0.6176226205445765
 -5.4814899653780058 11.7583450221981849  0.5125186848186242
  5.1770003674752338  1.6180249155246305  4.4322344569804768
  7.2868009071429327 10.4264595705662195  4.2869639637860324
 13.5790296236230752  4.3889616083765857  4.5226767324710897
 10.2580663100985898 10.3397913714076974  7.5309496767362196
  3.8426324202358710  4.3047112222577510  7.6104157742839105
 12.1362742203228748  1.6579094491673012  0.0395059890550373
 -1.9660201353591122  5.7804517554053803  3.6434742082905354
  4.6827185877240067 11.8747777612781551  3.6810871841343329
 -3.6785405203072696 14.3326620681463837  3.6806065943790376
  5.2626047597822616  1.5966472084319667  7.5947226743545890
  7.1627733990696321 10.2107961518207073  7.3900350154972898
 13.7004012206854000  4.3506795262558962  7.5823191918985628
  3.2289299444050146 14.4570491244526718  3.7537566485418581
  1.2151826759325521  5.7844782236124779  3.6707301797230532
 -5.2497540816907904 11.6690878052371882  3.5503319752490818
  7.0942248239174974  2.5311247460300050  2.1070986033734926
 11.8921506532905816  5.3961155981495255  2.1387436450419424
  7.2290399873260816  8.2199396495362151  1.9934063436750924
  1.3069836043033820 13.4075163773533284  5.8664123300087372
 -3.5452535270622865 10.6091644914315495  5.9493076874494442
  1.2312043417738692  7.8854159197956912  5.9342088925566516
 10.3609836006051683  8.1943552903880335  2.0478560654499849
 10.3021729468454009  2.6820542031146801  2.1849212078779932
  5.7300813175879330  5.3139764487222871  2.1883690913218214
 -1.8994747094111750  7.8524326645538665  5.9413986946360717
 -1.9167212283626358 13.3185993892453549  6.0547470225885460
  2.8460997308477287 10.7062660696971150  5.8161619463320200
  7.3727979308405160  4.8858679611364151  4.5680286756513455
 10.0311804117702579  4.5893532026951736  0.4114914541227174
  8.0158728400084112  3.3456126778239192  6.6717551294565940
 10.6767147345611040  6.8170971244780061  6.6863550929632982
 10.1040379999570877  4.5533079967954029  5.3572512041159150
  8.0113895214773745  6.0566388466352512  6.9831806372567007
  9.4408750838463842  4.9514317354741628  2.8748811398696148
  9.0234362398819226  7.0722286004836548  4.6009646776339022
