 C  O  H In  N 
 1.0000000000000000
    13.8351953600000002    0.0002713800000000    0.0004054500000000
    -3.4584020099999999   15.9703069499999994    0.0036034200000000
     0.0003653600000000    0.0039509800000000   16.9322510299999998
 C   O   H   In  N  
  96  20  56   4   8
Cartesian
  2.9547546204917134 11.8901849037640872 12.3843287094510828
  0.5055144760645238  4.0842997484939918  4.5523582177948541
  2.9540622069112605 11.8877347853361996  4.5548086016204046
  0.5058700863888335  4.0866706117821643 12.3810418442163090
  2.9624520488973185  4.0840918431293520 12.3811645313781238
  0.4975304291188284 11.8896073485507543  4.5553853926793897
  0.4985123001829965 11.8913318175564608 12.3837024736097145
  2.9618064400393909  4.0825975876692846  4.5524795759103407
  2.9598351509720362 12.8308801674997657 13.3968262426892437
  0.5000345237675645  3.1435949002300694  3.5398843757799239
  2.9593656562076700 12.8283389132308248  3.5423100934924419
  0.4999916103222766  3.1460563981549345 13.3934841180853219
  2.9662447555469496  3.1432819228393862 13.3938647520708312
  0.4931908800302369 12.8302412432884037  3.5425938503015146
  2.9660518594209271  3.1417251811408233  3.5397484404660786
  0.4938380236512562 12.8321325205824408 13.3964845459271693
  1.7299018030798241  9.1090569310712013 11.3410805951200171
  1.7317373066662669  6.8650376721326012  5.5952661128816246
  1.7279422275266041  9.1075425674976866  5.5966419687378570
  1.7336349675783969  6.8665293394912466 11.3396315848641542
  1.7312317641796546  8.6763640642459290 12.7124701667447777
  1.7307665411965303  7.2977003632990352  4.2238821324241593
  1.7283916169660878  8.6763848720842720  4.2246710795530067
  1.7336030548133907  7.2976452082184524 12.7116346478538844
  1.7263691989294068 10.8387623480792765  9.5497779212157621
  1.7332325733985452  5.1353001110340371  7.3865529726402555
  1.7260035129535081 10.8376326790780553  7.3887176156330865
  1.7336044149661667  5.1364058194575524  9.5475912609198428
  1.7270103182579244 12.2465702097345730  9.1517154280736399
  1.7315759165714146  3.7274892005399090  7.7846388018238439
  1.7268508483078402 12.2458991108779376  7.7855151642225788
  1.7317650269392764  3.7281262761259399  9.1508092578905842
  1.7273289761956092 10.4111043521286941 10.8693999885073325
  1.7334378257518150  5.5630055751252838  6.0669878428572783
  1.7260998211106102 10.4092154771467591  6.0693798967003429
  1.7345559165496338  5.5648655249167103 10.8669366399270260
  1.7265968711172595 11.4382631348396213 11.9032369744640931
  1.7338599549790894  4.5359071565238516  5.0331601745585566
  1.7256252068384972 11.4363859474177048  5.0356730001310073
  1.7346328377362739  4.5377004710434568 11.9006189743373341
  1.7270538320676767 13.2787256603257173 13.8828228359497583
  1.7325837787323679  2.6954147714660346  3.0536647003577411
  1.7266986814274650 13.2762802192885569  3.0563752377316278
  1.7324183329964296  2.6977628329906276 13.8796420521465720
  1.7284643764464320 14.2582369241741151 14.9647826468611864
  1.7303574421350312  1.7159938604682325  1.9716043089369020
  1.7284438818151413 14.2549252063655914  1.9739684642047648
  1.7297542320922734  1.7191400052958627 14.9619570310935242
  9.8762298549361169 11.8997178238623107 12.3832754925105846
  7.4232196233908931  4.0819043593708599  4.5507790860790367
  9.8749277116689242 11.8963777168503348  4.5574016897387519
  7.4226335889935688  4.0844886042433517 12.3830384869856935
  9.8784834281290639  4.0760188127072050 12.3803519110749551
  7.4190715054569329 11.8928314896778655  4.5529485345961884
  7.4206153312630354 11.8964268695501421 12.3872991960361514
  9.8788316711775757  4.0720949701102525  4.5528916387355620
  9.8815858992003864 12.8410045382874536 13.3960401926091084
  7.4151158744378547  3.1399248194169873  3.5387981079293063
  9.8803994386488032 12.8375226962879729  3.5446103840802397
  7.4152670538619301  3.1423916976771022 13.3949067086676923
  9.8805580776802824  3.1350478931432573 13.3931197730787961
  7.4151839188318780 12.8344157624641575  3.5407224244362778
  9.8801239265265224  3.1311101884444636  3.5399655004930066
  7.4165128381951773 12.8381941127757830 13.3994052352541857
  8.6425402081717486  9.1096883322566740 11.3464515205003966
  8.6468117606682409  6.8652871716903512  5.5906361568476690
  8.6425102736438237  9.1069529837794043  5.5927397206488783
  8.6453564512109349  6.8679970922514162 11.3443226782284778
  8.6413777601203527  8.6777477523779503 12.7170345412136232
  8.6440546981717787  7.2971970230253573  4.2201021176852622
  8.6413649972033024  8.6772470922055032  4.2213178957504454
  8.6431375260074059  7.2976609167379136 12.7157486278558540
  8.6531199720320622 10.8325199170146949  9.5511240549369241
  8.6603895645716307  5.1425087739686308  7.3860112449264950
  8.6523131054211184 10.8307009712304261  7.3887514964698449
  8.6595894038007426  5.1443861212328983  9.5483041882781929
  8.6616333119073197 12.2400769905037272  9.1514872043455515
  8.6655352321441548  3.7350417334862929  7.7856981281208579
  8.6609922149833256 12.2389616625031241  7.7862975093396436
  8.6651336374317349  3.7361547826612842  9.1507912782204865
  8.6476001307517141 10.4108568149902077 10.8730651787665558
  8.6543444262133988  5.5641428941326616  6.0640340484588720
  8.6465223501140436 10.4077207469166648  6.0672715820789849
  8.6528578872628152  5.5672621397732618 10.8698136816614319
  8.6482333791280865 11.4425645508664608 11.9045278346185270
  8.6524791553019789  4.5325002931401634  5.0325710329720694
  8.6468060275841871 11.4393105922438654  5.0357821644633933
  8.6515631323410300  4.5356569323071421 11.9012570103673454
  8.6491358982794662 13.2858715608698787 13.8854503235496498
  8.6462376302229647  2.6891018087446357  3.0515664142914511
  8.6479679474694144 13.2821091923484502  3.0549196918729562
  8.6469373442925690  2.6925320262111834 13.8815922048210716
  8.6493376061946172 14.2663731659910500 14.9669060863698231
  8.6427711970242722  1.7088480966852302  1.9698413905401220
  8.6485629642901340 14.2619161218582917  1.9730284025597637
  8.6444474644577642  1.7128905259308171 14.9635405386713494
  2.8714167041758039 14.6228444520200700 15.3802516909916349
  0.5869074186940527  1.3523308321600520  1.5562269034767902
  2.8715802916267261 14.6188831550280742  1.5582557253895204
  0.5861677816293469  1.3569211660639713 15.3781164942693831
  0.5889639568442782 14.6257974044771135  1.5585859834346363
  2.8686935635000577  1.3465563035542873 15.3768776951776616
  0.5889868465905205 14.6293350549450132 15.3800854026511846
  2.8694716659608539  1.3439206861886768  1.5561084579845981
  5.1891919929026731  1.1991216450327540 16.9292176763546642
 -1.7318692773845783 14.7792043837620977 16.9329542006093519
  9.7892270215252868 14.6360033801596146 15.3826484764863274
  7.5020584100216983  1.3416790977266173  1.5542576944608999
  9.7886884597440442 14.6321333590308900  1.5583382115403581
  7.5039705478781658  1.3440640646427449 15.3779003551782019
  7.5063970743643642 14.6285396866144186  1.5577225765275524
  9.7862183798131621  1.3452614141767141 15.3793400336013679
  7.5071053428489343 14.6343274326995303 15.3806602551547211
  9.7843030255361683  1.3387813048089079  1.5556154866525864
 12.1022608377635468  1.2061255432304363  0.0032448493148697
  5.1902512832431364 14.7694953255551571 16.9308482632638473
  3.8700418106817760 11.4840257910933126 11.9552598936632251
 -0.4095926057531498  4.4906903075101949  4.9815645824213162
  3.8691722730841236 11.4812885028397869  4.9839269360111231
 -0.4089695994120209  4.4934904118798542 11.9517746005948968
  3.8783940510169748  4.4891988618915475 11.9522229743309083
 -0.4181724354251769 11.4841749048626021  4.9845266817934943
 -0.4171674020109947 11.4857743421794343 11.9546431359348517
  3.8776459653682362  4.4878814810970740  4.9814850102479671
  3.8788572466506079 13.2271205100760714 13.8262177595500138
 -0.4191407864270327  2.7476283244065258  3.1106537743135503
  3.8783826034266351 13.2243770741730646  3.1127630573781615
 -0.4191640617085817  2.7503515289436011 13.8230000721108688
  3.8842918022687765  2.7452402091846695 13.8234201116961586
 -0.4250905388194271 13.2279131354783299  3.1132827303874646
 -0.4246776191987686 13.2294947814009838 13.8256082881270217
  3.8843963510643156  2.7439879269152199  3.1106003931435424
  1.7302764523142311  9.3432851304165556 13.5674308705330251
  1.7317141042827540  6.6307333030872240  3.3689248041892927
  1.7269832549200059  9.3441292893491514  3.3703123390997627
  1.7348307965622058  6.6298736253674795 13.5659402094476143
  1.7274657969917755 13.1024455232515287  9.8202644387555473
  1.7307083904954828  2.8716006202106765  7.1160755529007904
  1.7271676730170731 13.1012447469064917  7.1162816784624114
  1.7310490923269277  2.8728028348036365  9.8200586534201477
  5.1903214883180580  2.1590416613642036  0.0043671902645976
 -1.7349390145637096 13.8115076845962257  0.0101280279251637
 10.7928256988162445 11.4978032957052321 11.9533202804888621
  6.5078152710786696  4.4886488097111146  4.9785894600690579
 10.7913887174139376 11.4945487724953725  4.9877052070827288
  6.5069829078938088  4.4908520163905319 11.9554025360267620
 10.7967687333664220  4.4753502633391564 11.9517174191605431
  6.5016247946149219 11.4890574720511385  4.9790818044557144
  6.5030482026479781 11.4928701312138895 11.9610015785306771
 10.7975291633821904  4.4708433653018966  4.9812205519134141
 10.8001717028097914 13.2396425626047254 13.8243116765829264
  6.4953865260481125  2.7452426745378653  3.1093302287193798
 10.7989768028176361 13.2362997881413502  3.1165196359979102
  6.4959742246321683  2.7471624986445611 13.8247446510937042
 10.7977171655880060  2.7339387952486316 13.8222602322836483
  6.4971551248289598 13.2317166498369883  3.1099653810233052
  6.4983928767136998 13.2355389765995515 13.8299104872981218
 10.7971431210861688  2.7296610665240890  3.1107857365720193
  8.6411431574993145  9.3448053354550353 13.5718070111672109
  8.6457838137136331  6.6302434141988238  3.3652345563967430
  8.6402752876339566  9.3456106631239688  3.3675407617324544
  8.6448509982406385  6.6293577410060438 13.5695897980665308
  8.6673338832893396 13.0936690664533710  9.8225336845896187
  8.6684685498761311  2.8813494095440650  7.1148074849827596
  8.6661826305056113 13.0915674482994735  7.1140329966737044
  8.6677886034543885  2.8834494755044688  9.8229698125253169
 12.1009923643765269  2.1740880803553071 16.9316162684616600
  5.1898977202344652 13.8017301269803809  0.0119582251352187
  8.6458825688830920  7.9915844716936935  9.5388802716389236
  8.6473525958935653  7.9834866124099717  7.3982124520162209
  1.7308406533920959  7.9894480517856818  9.5372590814549092
  1.7301356110983854  7.9846311996657171  7.3990567868681563
 -0.0001107279143960 15.9736359572486037 16.9357835952391262
 -0.0005849147912122  0.0093680209959858  0.0005593963842084
  6.9176859508529969 15.9741963414654631 16.9361494821580969
  3.4591506344305341 15.9661053511387721 16.9355606492558621
  1.7315929703415571  7.9882569673774517 10.5548758830841525
  1.7299537197756822  7.9858350737753305  6.3814494869800171
  1.7256939198307286  9.9994592619901645  8.4696085632252309
  1.7343664190299037  5.9745651958358312  8.4667189488018373
  8.6434872185864577  7.9895595536710706 10.5580430406864920
  8.6445840960358744  7.9854481835743192  6.3790371564243005
  8.6482576428697548  9.9935046050846559  8.4705707869083984
  8.6575970185042266  5.9815628931097624  8.4665199351655627
