 O Si Au 
 1.0000000000000000
    13.7029250099999995    0.0000001400000000    0.0000007200000000
     0.0000001300000000   12.6471261899999998   -0.0000012000000000
     0.0000009800000000   -0.0000017600000000   18.5380665200000010
 O   Si  Au 
  96  48   8
Cartesian
  0.2123657199925601 12.2459898505581446  2.4371372789843986
  7.0875928832258444  6.3470932756153111  2.6278493007865209
  0.2314685027924835 12.6000709410154936 11.7176833872232464
  7.0265632579687285  6.3284070745406691 11.3737399905843013
  0.3321427235929180 12.4788472418593361 15.5442907032003017
  7.2361978303125172  6.2708910611831676 15.8690368697752824
  0.1892167585284505 12.6292912420204306  6.3715736144466115
  7.0367987862850283  6.1430762121622351  6.0638580720388813
  1.9208999674848095  0.4137853737216545  4.3369510631170902
  9.1060125882349112  6.6569454544733144  4.2808557712716153
 12.1880368722184684  0.3135847025888414  4.3177886273536501
  5.0937495583884926  6.3913181911869508  4.3897572720478060
  2.1311649779255912 12.2980121265380937 13.6531972520291838
  8.5869547684470309  6.0469830318150839 13.5507822259185087
 12.3133092158830983 12.0253255184956291 13.6610826087412907
  5.7531715180612482  6.0501269455520914 13.6183025348863698
  1.9110619745695496  1.6227206007139827  1.9277543896512492
  9.0462040124034537  7.9834181222547533  2.0520997252615620
 12.4927443307755457  1.7953894996979649  2.1388888618570303
  5.2396366965473726  8.1395916057199091  2.2763066729136621
  1.8698766614728206 10.5483771260037908 11.7199028599254067
  8.8135451122529371  4.3484992265121587 11.4611505928324267
 12.1581727868800655 10.6785227672450169 11.3920421097780640
  5.3670337914631014  4.3238137596249251 11.5870166559076573
 12.2227372231157467 10.4827048774919014 15.7324017274888863
  5.5939030463043533  4.2000727748413267 15.4443791872529683
  1.9609530835114364 10.4845814912768489 15.6105115469448439
  9.2531191433749420  4.4166071363223471 15.7839889516340701
 11.8562989181166571  1.7130450288981025  6.5296532494548156
  5.3221788166037109  8.1457124174868980  6.4700416598365482
  2.2075928273444161  1.8236373542000930  6.4419530322722602
  8.7356582852134697  8.1841523789111452  6.4883164761402421
  2.6815792005737036 11.7592761418050191  2.0062006336793052
  9.5968723334451234  5.4626035611697263  2.0321535899450867
 11.3872735589050968 11.9283882913075097  1.9963158364701643
  4.8823482292798959  5.4183378197454806  1.9559402034924092
  2.7930716468085759  0.5538549285209444 11.3405332628731887
  9.6401876465185481  6.8700928823002920 11.2951041936679264
 11.4578619508248352  0.6272722178771496 11.3306269684374765
  4.4911488696968060  6.8581908632589021 11.3890563284172490
 11.4624865190008354  0.3793681228215192 15.9579758787823938
  4.5539641413399696  6.4816920535650242 16.0253105704160674
  2.8745496225833271  0.2728783375155391 16.0606314640458088
  9.9133618559066967  6.9673350834753611 15.6836696265699729
 11.2779462373939356 11.8111362372437636  6.4156225745749200
  4.6504236001983266  5.3761178378998657  6.7750980070386992
  2.7384878322019022 11.9044979720203052  6.6509259807422154
  9.6230925761587791  5.6255495856884021  6.6127413019292272
  2.3110202036958065 10.5518567483839760 18.2325768420517562
  8.9911203147355234  3.9199652335359283 18.4975839323423337
 12.0087927723793122 10.6828369266363019 18.3345982514199548
  5.2620499975742883  4.2438806460434781 18.1079031661020444
  2.2097943470365982  1.9216969683309379  9.1617780584507251
  9.0992234721732039  8.0938691019286164  9.1503674694863655
 12.0527863992005848  2.0787981523645787  9.1660680839420419
  5.3336773504495048  7.9816427739225819  9.0634391368960951
 12.0124705348336569  1.8172792679435004 18.1172660307712867
  5.1697892037853510  8.2266600007540074 18.1109217074882061
  2.2905705335771347  1.9543158675903967 17.8238748363544381
  9.0088834297908971  8.1708828165165155 17.9238429770261796
 12.2216340335837419 10.5516532633327245  8.5661921405548256
  5.1034008873563277  4.3112493364800395  8.9908885251612922
  2.0557421682239041 10.7525876314641771  8.9201225779055306
  8.9871512971242744  4.2447025002640890  8.7208899534268873
  0.3171228726137767  9.2055183750458518 17.3564847109356180
  7.2172072434354089  2.8825780062226642 16.9598372308007832
  0.2311460412912549  3.1173531012282671  7.7781325198341289
  7.1140084581248466  9.5129915982319080  7.8636355842361088
  0.2846832607830642  3.2693597278140079  0.5115276187025288
  7.1255501961156718  9.3350110282623451  0.8466960160602305
  0.2831303292308078  9.2965328421538107 10.1040820091336609
  7.1028208942488167  2.9246715774550012 10.1324793969616174
  2.7820902169493600  8.3006417418366905 16.8011840027893165
  9.7997595399254003  2.0718732407058069 16.6815927439361786
 11.5766758827609504  8.2818719369927933 17.2412032720648654
  4.7994101054171736  1.9232457966377536 16.7882076965689286
  2.5606560455296266  4.1455482990980261  7.7450152157416809
  9.6375766800866867 10.3692391279986271  7.8126433467745313
 11.5315848898885669  4.1546064150229380  7.4709238844249830
  4.5150492152070711 10.2584381182460955  7.7152251778080974
 11.3151667227990647  3.8687656439138087  1.1744195538775708
  4.6268273188942697 10.3406816296218036  0.9761745441948640
  2.9187236676756472  3.9093748656417713  0.9882702261691165
  9.6902463819985662 10.2164059695451286  0.8815378070711716
 11.5062449408732714  8.4463145925386556 10.1370930437979627
  4.6115188244978347  2.0779776662717517 10.4032963987675835
  2.7520679944347388  8.4747323365608498 10.2018132351028825
  9.5677815581710242  2.0861991263203312 10.2078003264490622
 10.0215455440114685 12.5971013853800891 18.2093173410679228
  3.4361478776355403  6.1996696374195261 18.3131298476654685
  4.0798549181107253  0.0223780143699723 18.4270761765199040
 10.5491269877891742  5.9367333297443139 18.0072571540526916
 10.4578323457928626 12.6048705153472032  8.9277501457194148
  3.4297108509014143  6.2834993367972594  9.0505261369844554
  4.0419691147656680  0.0300764668604691  8.8842558777910163
 10.7800550559464892  6.1379102556156528  8.9720002141360329
  1.7009938307187502  0.1836070713682901  2.7003458631647681
  8.6819616520049898  6.6080143708736587  2.7422294156123113
 12.4216253439289623  0.2811764675840761  2.7384523398420493
  5.5280583432186425  6.6121338769996338  2.8482449296994745
  1.7666595515611854 12.1372474417197491 12.0862171227480690
  8.5126197387325266  5.9058588363989495 11.9274551006908816
 12.4106074370429305 12.1621463293162577 12.0640413322009312
  5.6169639454939606  5.8447810202453478 12.0147714722153527
 12.4917478308159797 12.0149974719009673 15.2645037633606524
  5.8354884958855484  5.9019110782845425 15.1899047747828106
  1.8611126078014628 12.0278077682857987 15.2180868510986631
  8.7658499647186243  5.8610874499634340 15.1860215784532038
 12.3248739529613029  0.2905665324657982  5.8862855467128421
  5.4703805665778464  6.5574140184094256  5.9654020937516545
  1.7591072869872606  0.3386846863754110  5.9517440121507006
  8.5898555526472560  6.6702225033572802  5.8803890838441708
  1.8719545674370641  9.6504812563065894 16.9730558030173384
  8.7901662844230746  3.2908258630232075 16.9756302243434476
 12.4324319175186080  9.6251911419005705 17.1521240723289523
  5.6485132393754549  3.3407254629878218 16.8043023560414362
  1.8334611255391224  2.6957604030653490  7.8219733175406345
  8.6751377548720487  9.0668963605648791  7.8738005012245456
 12.3602732533190256  2.7713537835444901  7.7323662259655430
  5.5654381570178053  8.9911977143781261  7.8678271945990819
 12.4245602977634420  2.7586416751854439  0.8252609813975800
  5.5066470362269753  9.0222531359719671  0.9499950726002220
  1.8301347740795193  2.6879211273227557  0.6825365988244697
  8.7190838935712662  8.9303566342029477  0.8053568059874180
 12.4546752274424950  9.7941118934983891 10.0410224020992374
  5.5431190389345941  3.4341665930640728 10.2562992767092318
  1.8112312085843498  9.8061442411033291 10.2465239096949521
  8.6268237673433621  3.4452846022382766 10.0929722125572336
 10.7449288631759661 11.3764144597328958  0.5976165115901948
  4.1367588446509025  4.9319972622006931  0.5366851172800668
  3.4538222593791690 11.3649094224086582  0.5829616026166464
 10.1574353453916117  4.8638643388513643  0.6129106327705828
 10.8927584601396958  1.1791401971109712  9.8919045987859509
  4.0278956581164183  7.4866441494693774  9.9404728177459898
  3.4259433635555321  1.1084180171102109  9.9594802855261904
 10.2885539458508202  7.3907946809989982  9.9230992798550215
  3.5508735913539069  1.0609754237614479 17.2784481795674516
 10.2235486131308431  7.3615438426016961 17.1987867090473934
 10.8433480201870456  1.0244984033752507 17.2846862548234874
  4.0150849089736260  7.3941171993718733 17.3265423920680490
  3.3482568299262101 11.3708619627984344  8.1011148866759957
 10.2425372038245097  5.0222496727420953  7.9741732893355497
 10.9065234592395424 11.3648164790598116  7.9083462727760550
  3.8991399756029317  5.0208059244917100  8.1214936731378522
  7.2112543911229023  9.3866887286503484 12.5804121208022437
  4.9227934820758552 10.7312430687178484 15.9722123441740198
  7.1013233608927795  9.0782043257507787 15.2422612304284240
  4.5582852669419429 11.8447844640591100 13.2459765352148047
  7.1089806719887010 11.5576740037239052 14.3737067900844160
  4.8413870118983082  9.2663707920835545 13.7359032266773511
  6.8435084242846118 11.9464342668023598 11.7000507585498017
  4.9433736476615415 10.1509501178723021 11.2143232691989052
