 O Si Au 
 1.0000000000000000
    13.7029250099999995    0.0000001400000000    0.0000007200000000
     0.0000001300000000   12.6471261899999998   -0.0000012000000000
     0.0000009800000000   -0.0000017600000000   18.5380665200000010
 O   Si  Au 
  96  48   8
Cartesian
 13.6296662980664713 12.5761019535513441  2.7915437031059942
  6.9328752380670435  6.0747759341029859  3.1667681526337126
  0.0117313047554942  0.0653145526034903 12.1267481361751042
  6.7872697940149989  6.2179282976606709 11.9693276527961388
 13.6667549240234738 12.2477208411878671 16.1008939069502262
  6.6622523386258932  6.3581737801444653 16.1364823655492238
 13.6994867497284183 12.5483617459956101  6.8056429741878315
  6.7589210322046478  6.1752983859761210  6.5376606322029618
  1.7649764591915436  0.2108881194324830  4.7539129739570019
  8.9114421806727595  6.6283555607711415  4.8200574887942533
 11.8583099953030420  0.3182208285944956  4.8880903511580458
  4.8118935654220403  6.5748995401014856  4.7263594019462278
  1.8548346916787886 12.2174310448652719 14.0829568991588285
  8.3525063842452223  5.9338747917795605 14.1379315461351762
 12.0923949303065399 12.2886243548681708 14.0549493779002290
  5.0884171552722641  5.8026178384180778 13.9858628858962799
  1.8603024058032374  1.7682596133825326  2.6432288259463625
  8.4565118352594855  8.3201562484806484  2.8540041426338632
 11.7666095147350784  1.8949687296211155  2.7785205146604000
  5.1211144816943426  7.8167790111863242  2.3723246128559232
  1.4307952241632602 10.4343433876091414 12.0919036332019303
  8.4598766257681035  4.2206236868417761 12.1324829366793239
 12.0400773132125813 10.5580583201628535 12.0559451497610546
  5.0419273918859195  4.2847984767522656 11.9398331245359515
 11.6127363310185086 10.7443275836350267 16.1538673936558581
  4.9216684169722065  4.2908212663506502 16.1848495834651942
  1.8586922920641591 10.4580414468979956 16.1268847524878716
  8.4320066027480163  4.2881915777076332 16.2644659439663677
 11.7169219702955942  1.7459113239953674  6.9852180669927249
  5.0141005013164408  8.1086767760233052  6.9642891170274357
  1.8138302596564131  1.6805700998147761  6.9692559068140918
  8.6238941091271410  7.9545797844496020  7.1376740036748485
  2.4847253356308796 11.8577975868971279  2.4836670552769915
  9.4275246228037197  5.7386757399479569  2.4537277255836591
 11.0137744656488401 12.0345707311278076  2.4754323213603331
  4.5205259399309092  5.3611893367753423  2.3417635139702520
  2.5289151695109382  0.3109056234127169 11.6759004281806416
  9.3630799973276666  6.7176018767332808 11.8143554368017440
 11.2036953126890833  0.3625487423687881 11.5896790340349458
  4.1467732824065910  6.7610601327771320 11.7998070401322295
 11.1701091502331895  0.6003052816182443 16.3644930247990672
  4.1250467071812906  6.8628372082664555 16.2169247871629665
  2.5517480566765718  0.2992419922748937 16.4325858849444302
  9.3380229325865400  6.6900757318971600 16.3778286357722784
 11.2695514485880910 11.6814355943442347  7.0867048582195338
  4.1991131224117835  5.5724860681242943  7.0473774851316904
  2.4983891752387559 11.7132972830150575  7.0893924139739912
  9.2947191333821735  5.4726467881745267  7.1424659938502355
  1.8674180221298609 10.5684282144769544  0.2024525782965288
  8.7552465288298098  4.1688746579543485  0.4261638897156360
 11.7645308761338345 10.5447038148823129  0.3039293644232824
  4.5473429848974032  3.8432924554956753  0.2270509615351404
  1.7658829097029154  1.8028991712928653  9.6668059580856927
  8.6156453629235816  8.0930612661840566  9.7702781640149254
 11.6367260214944217  1.9644273529176528  9.7000085093069437
  4.9338571348962335  8.0138933931497345  9.6359863703949564
 11.5245071888161679  2.0357132893320000  0.0446675129018424
  4.8422614910268713  8.2395042711278563 18.3338753074827707
  2.0179297544787502  1.7696109558834472  0.0268378677851024
  8.8678366355994740  8.2329008307690188  0.0790630554457848
 11.5543221888976770 10.6517059769904012  9.4720031806734468
  4.9226908324950251  4.1901055292440885  9.1902354009154976
  1.8843976654821788 10.6326166937520288  9.3833708806959830
  8.7184976858217311  4.3538516721653373  9.5355020684808540
 13.5839114631413516  9.3000800564659158 17.4078501176187821
  6.7289942663625091  2.9846865239966385 17.7400497279905238
 13.6731617703603305  2.9803000707439247  8.3620350624394479
  6.8513458837897927  9.4293177822628405  8.3586722137302374
 13.5851399670108606  3.0072702424317153  1.1798829230948702
  6.7373351148261307  9.4675914458777513  1.2113940680656836
 13.6362398173654960  9.2685389250850676 10.3051256348700360
  6.7381133167619209  2.9335849803596190 10.5007699538470725
  2.2248362754472946  8.1649300439839276 17.4379161478070479
  9.1555594500333068  1.9852311151454962 17.4418117607165861
 11.2116643558215134  8.3233034117724518 17.2517834796596787
  4.5143884611436800  1.7641653991392114 17.1617156270225415
  2.4222141764407534  3.9951365010870665  8.0684192084070165
  9.2793531909794513 10.3266963036074646  8.2154202740301727
 11.2359454255686959  4.0159745991926270  8.3781896487995642
  4.3341843440813888 10.2430083044199911  8.4007536006451815
 11.1781607923322568  4.0797872026240620  1.5998790907496336
  4.1872140784396992 10.1971755204452954  1.4934073532548515
  2.1852232476200792  4.0973372877304568  1.4638548119506072
  9.2815983298746882 10.3793476952589199  1.4061359478904838
 11.1586097184675310  8.3411448126173369 10.8650430509082039
  4.2259711542029841  2.0834720435606502 10.7853703781013834
  2.4020204970624532  8.3646748433028453 10.7028130023663532
  9.3181034802638472  2.1149725273087427 10.9794004281866773
  9.9076079208131205 12.5763725591908209  0.1782128052160272
  3.0948465234851792  6.1440686399566733  0.2289858556748320
  3.8635645069207101 12.3994820790133247  0.1443638487657376
 10.6123450389317711  6.1821265829000458  0.1496053193176948
  9.8845920132476319  0.1596870314465567  9.1651677582180220
  3.0453954802410648  6.1484252118478340  9.3764800263252663
  3.7388504258082480  0.0191021450967166  9.1776839803912011
 10.4649058933321264  6.2326590643790514  9.4218452815225575
  1.4942567318473892  0.3155007404756950  3.1852254684973729
  8.4561139073892910  6.7263935705738263  3.2598442806067482
 12.0879032411582994  0.3751114256662831  3.2717303846518133
  5.3436637164836966  6.4723184709237680  3.1955978763207269
  1.5045933234596491 12.0486518791304071 12.4864385869559982
  8.2604818382661680  5.7815300643292353 12.5303795741285775
 12.2399937069217017 12.1111263944796317 12.4312125765149517
  5.3101036786073115  5.8286794166029257 12.4178665128824530
 12.1252062549278516 12.1946637737671857 15.6200623598622226
  5.2357082009419980  5.8032845682392376 15.6147657225515477
  1.5187873925336604 11.9977323490427246 15.6792290266382750
  8.1505597464491952  5.8200088946786526 15.7208558919632591
 12.1381973907667469  0.2340276252525771  6.4565928452580463
  5.1856494243709772  6.5965788451555945  6.3014299279009203
  1.5140395393214803  0.2012634976964998  6.3985514576686180
  8.3380444624143895  6.5161628746265210  6.4034411882345896
  1.4695370923724715  9.6559485627550359 17.4164112533431386
  8.2632255438439728  3.3843058940701751 17.5924571002816457
 11.9880111320378990  9.7416352268483024 17.4142189300019865
  5.1586946769425284  3.2067187314151893 17.3724701677518141
  1.4961210323192924  2.6390018273211893  8.2491342930394804
  8.3852756968492770  8.9481965801248613  8.3809751170475284
 12.0637297911455796  2.6658663204612689  8.3325932212229681
  5.2747014417427325  8.9377810085331024  8.3708409351514259
 12.0135602777700772  2.7698558212591302  1.4205844555928244
  5.2104684645279784  8.8970041915202511  1.2056516904926429
  1.4952408006589459  2.6393146172168200  1.3096803031148196
  8.3162865831057324  9.0928013211431669  1.4013062967708021
 12.0940700451371601  9.6828470916166260 10.6879019219817089
  5.2150980265755722  3.3757451810990777 10.6009298929924629
  1.4778996287100707  9.6957430110864653 10.6215469491680352
  8.3151802345732673  3.3306373228710204 10.7828917497534107
 10.5343378139314812 11.3393362010943974  1.0640110851031472
  3.6194375551275448  4.8471690032297454  1.1446508148456080
  3.0766673590499605 11.2824106544545248  1.0285946494689819
  9.9660855371619217  5.0410743024652378  1.1285035470802749
 10.4487661763238453  1.1477522541277598 10.3946039235873648
  3.6147330335632719  7.3685457439099729 10.3919277458747654
  3.1004691767013135  1.0022864592271121 10.3107857227013255
  9.9002003349775585  7.3595196749479959 10.4518479278817455
  3.1944704038605582  0.9042808919239169 17.7990539954542619
 10.0044876530736033  7.3686080946947072 17.7353882726901340
 10.4797000957932376  1.1323235802651155 17.7453899908850801
  3.5908596361344394  7.3038878801637770 17.7183457119038579
  3.1151362528164377 11.3084905906519992  8.5584417515474662
  9.8763110781515095  4.9482737911581385  8.5470545906373641
 10.4532847217883589 11.3852281195419831  8.5164187429863762
  3.7133731374428924  4.9995252058449005  8.4360642623674167
  6.6231572707816451  9.1994219348866597 11.5793676384299449
  5.0569752784860276 12.2572129354803590 13.3506370698178216
  4.2465958341569037 10.4177090689196241 11.6894809177615109
  7.7021884851694482 11.4965603704697994 13.7754007406752326
  5.4529314460181837  9.7708079770736038 14.0081994156457803
  6.4939606210044758 11.7606609232449610 11.2400091721464594
  7.9505001253842078  8.8233416023799016 13.8582898934355399
  8.9351537036065203 10.6188653473385539 11.4704123638257194
