 O Si Au 
 1.0000000000000000
    18.1541673199999991    0.0003963400000000    0.0000389000000000
    -9.0767404299999992   15.7217942399999995    0.0000413600000000
     0.0000163600000000    0.0000295300000000    7.6305892899999996
 O   Si  Au 
  72  36   8
Cartesian
 15.2045199962982167  4.4439952358906201  0.3627245029382556
  6.1151175593074871 11.4990795570528501  0.1172633538426585
  4.5934969168105564  0.1697424904821468  0.2492067738517052
 11.2338615334518384 11.5661953299189850  4.0261168170866606
  2.1657988959544330  4.4774542507835893  3.8248071487803337
 12.6341713343179975  0.1385576141173768  4.1703963105627961
 12.8461411465044790  0.2203589881283367  0.0913395952161879
  2.1601969884952812  4.4305986529178032  0.3289518226773993
 11.1381573649436341 11.6871098020233131  0.2415902679863077
  4.9186335493792130  0.1512772667795539  3.9251371901473191
  6.1211739316303113 11.6311644708002220  3.8345213218718621
 15.3077369164075296  4.5367457374892171  4.0519825374501197
 -2.2838599898234380  6.9526731341267514  7.3058099894888064
  3.7034362263659020 10.8372847167513893  7.1276104743318420
 -2.5943571115319899 14.2479674659863313  7.1334722196051370
 10.6227121976456829  9.2288769082777762  3.2258832873707841
  4.7248381563371540  5.1062918706348928  3.4193450836216437
 10.7120133475469750  1.8345474779273645  3.5317951918939019
  1.7916095988270107 14.1930712523123574  7.1600755347694287
  1.4855865129379948  6.9274791322094718  7.1306720607933070
 -4.6055215573083208 10.5868353493591805  7.2632951704711122
  6.5782856980624596  2.2596132375207900  3.4509338730797223
  6.7363762597976038  9.1167384393011837  3.2675756969605030
 12.9378884979877959  5.4058492490959678  3.4728698374603368
 10.6973210455015586  9.0821502333263417  0.7122839757555882
  4.5267399323399840  5.4304942009306050  0.7763060418583795
 10.8566145344416682  1.7356934075505550  0.9286596437421852
 -2.4248847745426869  7.0447760476125856  4.5728889269186093
  3.6157271485201052 10.7693204544263477  4.4598156812599417
 -2.3030974869880945 13.9224347695651804  4.4238738982611290
  6.4811308553935998  1.7781537426801053  0.8584793810120629
  6.6485945408209677  9.0032955853157794  0.5857463953979272
 12.8310720904990934  5.5563276135412734  0.7926879681538579
  1.5790296701067246 14.0818094956149160  4.4472130543521660
  1.6232780781317602  7.0578737773390641  4.5808562034896703
 -4.3811230653276070 10.7145326427687344  4.5675582034117292
 -0.3418383434707050  5.2036043934968452  0.2312267835912969
  4.1140433897694519 13.3375486257418103  0.3059650034950080
 -4.9751836211330867 13.1851886870144082  0.1909329581815852
  8.6801429992642340 10.9210947876894213  4.0524070657307103
  4.0247467315461458  2.6796661617237376  4.1154394368226139
 13.2933646131767276  2.7276989130446814  4.2402217536859306
  8.6891174350308926 10.6463174379244538  7.5766790719923858
  4.1107121117924033  2.7647861312918796  0.1777912478444959
 13.1865450158722108  2.8724876213107420  0.1724712245790751
 -0.3043192604812359  5.4099199757982781  3.9103172800446346
  4.0804366017242986 13.2807725560112022  3.9017926970956300
 -4.7930151685745077 13.1940058815961496  3.8724801267476021
 -1.9634673322242018  6.1911868584300418  2.0692914126759794
  4.1517132443074383 11.4390779602373787  2.0049952065210008
 -3.2417975950540581 14.2673664634223414  2.0372257282985222
 10.4514090508706943  9.8310391705866795  5.8298542142642047
  3.8678549340402255  4.5895474289351004  5.9054619428325843
 11.5684516614728246  1.7237310880984118  5.9913694803349333
  2.5620338046801590 14.4853990235760524  2.0727222394958522
  1.4550916176380360  6.1754583159841960  2.0542579458445340
 -5.0663078381344127 11.2320990098677065  2.1228481065037768
  5.7587513636800889  1.7894337454645515  5.8945447186895734
  6.8619999534480307  9.8898949790355104  5.7406134189214510
 13.5140837991889864  4.7940747160354089  5.9782376377397224
  6.6906616324338453  4.2944227470430727  1.6584592541561125
 11.7731745114210664  3.6871692521848836  2.2699702492873683
  8.6612327715256772  7.9415958808377729  1.9466493818562147
  1.7011793754794131 11.8890618136462436  5.9147566992819041
 -2.4659861049849860 11.8398886205543139  5.8631901301694702
 -0.3892963479911923  8.1779928725194448  5.8817499132910109
  8.6917041213996580  2.3808464989145435  1.9374683325993185
 11.3578355629386092  7.0356231463366861  2.3351058036582968
  6.1875929483804057  6.9051430126203526  2.1255476324251874
 -0.3910525831046583 13.3952937902979823  6.1434892291829701
 -2.8810612633064614  9.1742924969473556  5.9513555788945549
  1.9423442880671322  9.2886900832162844  5.8296483084897135
 -1.8713660958090130  5.6631223871316116  0.5320771380058033
  4.5717256114417690 11.8148369513450362  0.4664059012369989
 -3.8512221301478795 14.3963680011319912  0.4974898953629409
 10.1441005446438446 10.3523618963741200  4.2346650094966556
  3.6832041213317779  4.2293296682791093  4.3392958950959057
 12.0442800427564052  1.6375474635763905  4.4279176665165920
  3.0280449462573471 14.4945283419776487  0.5075373323232275
  1.1682799370450667  5.6999933794769753  0.5110333632181213
 -5.4110952606451743 11.6948423653937734  0.5733153102038965
  5.3416968115151784  1.6324661243209999  4.3381438242291654
  7.1077117376609937 10.3381999052442097  4.1962340059128085
 13.6948382299318006  4.2969488187650802  4.4416567826815525
 10.2795301469825695 10.3386504117187972  7.3654374293451310
  3.7073239539523386  4.3367525269777563  7.4906778509664038
 12.0741585344447468  1.6738747779225718  7.5298017109737927
 -1.9069633574682825  5.7887410527901810  3.6441328104410027
  4.5124422771680042 11.7674814119497348  3.5344521169176870
 -3.6616729799140235 14.3647528749331048  3.6310405831791090
  5.2200612377449396  1.5833117632726090  7.4964883090547394
  7.0977992902127536 10.2620163311570884  7.3430719258500874
 13.6560827120797406  4.4173388318822111  7.5336092591127644
  2.9537270205453470 14.3926707382830710  3.6479409020697520
  1.2078811792860173  5.8327960743717506  3.6108151927750867
 -5.3092020093216581 11.6641768521502911  3.6337968932590643
  7.1828184730066633  2.7783567267588256  2.0223876941568490
 11.9307269135661631  5.4148392496654489  2.2097198027027742
  7.0714667271333429  8.1937978274698136  1.9681046258864043
  1.2268433485698556 13.4074618853473968  5.8879896332537793
 -3.5689655923958168 10.6672517166441114  5.9930356399895555
  1.1602377663701298  7.8481905997837167  5.8762628171225018
 10.2565129282609249  8.2029447917708538  2.0144049738027423
 10.3853516840743705  2.7306979782543093  2.1852666294942158
  5.5950107921131034  5.4013758406955779  2.0695331656695211
 -2.0106219618147088  7.8044328127517266  5.9235475754695690
 -1.9516894332250228 13.3831726527022372  5.9002018202954210
  2.7821470846043166 10.6675698169805315  5.8042679364134013
  7.4934221776602845  4.6311216479839636  4.6083922400316517
 10.2480789964487133  4.6614585339878962  0.4142018200103766
  8.2849174361074240  3.3541744960471060  6.7623632639217943
 10.6055309839413923  7.0415861795552326  6.9031613004187529
 10.3268722210381885  4.7047529734270750  5.3331066410318027
  7.9270493627281242  5.8856541281710815  7.1661031812915539
  9.4515006917858333  5.0237487759190067  2.8460316340505347
  8.8614076305472871  6.9701829343368420  4.7352346845369597
