Mn16 H2 Au16 O27
1.0
10.953753 0.000000 0.000000
7.302502 6.154351 0.000000
0.000000 0.000000 34.782836
Mn H Au O
16 2 16 27
direct
0.500000 0.500000 0.386364 Mn
0.000000 0.500000 0.386364 Mn
0.750000 0.500000 0.340909 Mn
0.250000 0.500000 0.340909 Mn
0.500000 0.500000 0.477273 Mn
0.000000 0.500000 0.477273 Mn
0.750000 0.500000 0.431818 Mn
0.250000 0.500000 0.431818 Mn
0.500000 0.500000 0.568182 Mn
0.000000 0.500000 0.568182 Mn
0.750000 0.500000 0.522727 Mn
0.250000 0.500000 0.522727 Mn
0.500000 0.500000 0.659091 Mn
0.000000 0.500000 0.659091 Mn
0.750000 0.500000 0.613636 Mn
0.250000 0.500000 0.613636 Mn
0.605966 0.216051 0.724160 H
0.433611 0.474584 0.719237 H
0.250000 0.000000 0.340909 Au
0.750000 0.000000 0.340909 Au
0.000000 0.000000 0.386364 Au
0.500000 0.000000 0.386364 Au
0.250000 0.000000 0.431818 Au
0.750000 0.000000 0.431818 Au
0.000000 0.000000 0.477273 Au
0.500000 0.000000 0.477273 Au
0.250000 0.000000 0.522727 Au
0.750000 0.000000 0.522727 Au
0.000000 0.000000 0.568182 Au
0.500000 0.000000 0.568182 Au
0.250000 0.000000 0.613636 Au
0.750000 0.000000 0.613636 Au
0.000000 0.000000 0.659091 Au
0.500000 0.000000 0.659091 Au
0.776272 0.335592 0.386364 O
0.276272 0.335592 0.386364 O
0.973728 0.664408 0.340909 O
0.223728 0.664408 0.386364 O
0.723728 0.664408 0.386364 O
0.776272 0.335592 0.477273 O
0.276272 0.335592 0.477273 O
0.526272 0.335592 0.431818 O
0.026272 0.335592 0.431818 O
0.473728 0.664408 0.431818 O
0.973728 0.664408 0.431818 O
0.223728 0.664408 0.477273 O
0.723728 0.664408 0.477273 O
0.776272 0.335592 0.568182 O
0.276272 0.335592 0.568182 O
0.526272 0.335592 0.522727 O
0.026272 0.335592 0.522727 O
0.473728 0.664408 0.522727 O
0.973728 0.664408 0.522727 O
0.223728 0.664408 0.568182 O
0.723728 0.664408 0.568182 O
0.776272 0.335592 0.659091 O
0.526272 0.335592 0.613636 O
0.026272 0.335592 0.613636 O
0.473728 0.664408 0.613636 O
0.973728 0.664408 0.613636 O
0.526272 0.335592 0.704545 O
