Rb12 H2 Ir12 O37
1.0
9.820502 0.000000 0.000000
9.820502 5.669869 0.000000
0.000000 0.000000 34.720716
Rb H Ir O
12 2 12 37
direct
0.666667 1.000000 0.340000 Rb
0.666667 0.500000 0.340000 Rb
0.000000 0.000000 0.473333 Rb
0.000000 0.500000 0.473333 Rb
0.333333 -0.000000 0.406667 Rb
0.333333 0.500000 0.406667 Rb
0.666667 1.000000 0.540000 Rb
0.666667 0.500000 0.540000 Rb
0.000000 0.000000 0.673333 Rb
0.000000 0.500000 0.673333 Rb
0.333333 -0.000000 0.606667 Rb
0.333333 0.500000 0.606667 Rb
0.796422 0.120244 0.759650 H
0.515798 0.400868 0.754717 H
0.666667 1.000000 0.440000 Ir
0.666667 0.500000 0.440000 Ir
-0.000000 1.000000 0.373333 Ir
0.000000 0.500000 0.373333 Ir
0.666667 1.000000 0.640000 Ir
0.666667 0.500000 0.640000 Ir
-0.000000 1.000000 0.573333 Ir
0.000000 0.500000 0.573333 Ir
0.333333 1.000000 0.506667 Ir
0.333333 0.500000 0.506667 Ir
0.333333 1.000000 0.306667 Ir
0.333333 0.500000 0.706667 Ir
0.833333 0.750000 0.406667 O
0.833333 0.250000 0.406667 O
0.166667 0.250000 0.340000 O
0.166667 0.750000 0.340000 O
0.500000 0.250000 0.473333 O
0.500000 0.750000 0.473333 O
0.333333 0.250000 0.406667 O
0.333333 0.750000 0.406667 O
0.666667 0.750000 0.340000 O
0.666667 0.250000 0.340000 O
0.000000 0.250000 0.473333 O
0.000000 0.750000 0.473333 O
0.833333 1.000000 0.406667 O
0.833333 0.500000 0.406667 O
0.166667 1.000000 0.340000 O
0.166667 0.500000 0.340000 O
0.500000 1.000000 0.473333 O
0.500000 0.500000 0.473333 O
0.833333 0.750000 0.606667 O
0.833333 0.250000 0.606667 O
0.166667 0.250000 0.540000 O
0.166667 0.750000 0.540000 O
0.500000 0.250000 0.673333 O
0.500000 0.750000 0.673333 O
0.333333 0.250000 0.606667 O
0.333333 0.750000 0.606667 O
0.666667 0.750000 0.540000 O
0.666667 0.250000 0.540000 O
0.000000 0.250000 0.673333 O
0.000000 0.750000 0.673333 O
0.833333 1.000000 0.606667 O
0.833333 0.500000 0.606667 O
0.166667 1.000000 0.540000 O
0.166667 0.500000 0.540000 O
0.500000 1.000000 0.673333 O
0.500000 0.500000 0.673333 O
0.666667 0.250000 0.740000 O
