 O Si Au 
 1.0000000000000000
    18.1541673199999991    0.0003963400000000    0.0000389000000000
    -9.0767404299999992   15.7217942399999995    0.0000413600000000
     0.0000163600000000    0.0000295300000000    7.6305892899999996
 O   Si  Au 
  72  36   8
Cartesian
 15.2433271383737221  4.4053828221074509  0.2310090452201730
  6.2148162219826606 11.5163229892994696  0.1988847352221000
  4.6611940910513621  0.2914291064203636  0.1009344054588558
 11.2434820747382087 11.6421982424922508  4.0466582657899526
  2.1161761087559654  4.5866080636969810  3.9804302755825915
 12.7968118229969043  0.2029856294646026  4.1550496115299493
 12.9051132249936558  0.0998580435978627  0.2134967503887220
  2.1584805648105942  4.5462380627350685  0.2061233207325490
 11.1385710171479122 11.7537870404234823  0.1973578928089131
  4.7165567158945656  0.2305924783779649  4.0068183782526541
  6.2272367364865442 11.5048351489897893  4.0494724017031496
 14.9202502173817990  4.7044598373809228  4.1195419574715979
 -2.3783006023994044  6.9707941003815561  7.2568878847238203
  3.7253664650417622 10.6765963643984936  7.3207825326680469
 -2.5441590060610544 14.1903504333522399  7.1895960897243496
 10.6950338026129419  9.0885443220764213  3.5289272277688224
  4.7047095766687708  5.2260465071090261  3.3509424113360655
 10.6402045614584466  1.6490016699831749  3.6780265828479051
  1.7942754230437683 14.1354334578394507  7.3472539878971519
  1.5081289866312919  7.0489724723607852  7.2850965008577822
 -4.5582650995513356 10.9255175033617764  7.1813905983369883
  6.4963110328984159  2.0915534092726862  3.3216280190062668
  6.8560150907476123  8.9877140713492434  3.4518472082406393
 12.2895301843117704  5.3906929050759000  3.8846988586563862
 10.9191671947669544  9.2120011016398813  0.8419430759861213
  4.5992269612795580  5.5042011753366920  0.6795093501683647
 10.8376197619324159  1.5247475745508718  0.9772009693836083
 -2.2428522426440378  7.1328340878246799  4.5676608695576828
  3.7068413962612832 10.8328533896189931  4.6364333870833079
 -2.4583012358927099 14.1225964648827240  4.5051964082705940
  6.6972214448675000  1.8659958335646916  0.6579223175072549
  6.7108040732208103  8.9915250788477241  0.7790961091905395
 12.9972962602370128  5.2625488762708228  1.2601284135341275
  1.8751898331304040 14.0617192371672175  4.6505717271160076
  1.2986389192221750  7.0378565882291948  4.6009661684709426
 -4.4004310032257230 10.8337423840791338  4.5007240029240307
 -0.4205289493287134  5.2494723149949856  0.1991865154069904
  4.2493228113606190 13.2452581430676855  0.2486436903856246
 -5.0403319074941324 13.4720370331006158  0.2182247151031517
  8.7428089170215095 10.8030669872604133  4.1212979906166103
  4.0080565629788243  2.7685423015661894  4.0525511845572026
 13.0765644430854309  2.8259509720561891  4.3979496276585275
  8.7196827631580884 10.6972891229567377  0.2285747946200887
  4.2497258450792526  2.9064163999864880  0.1462896251451145
 13.1861631960126733  2.7274204911714874  0.2436645428686857
 -0.5287671842826392  5.1614089144569233  3.9940921016013720
  4.3727109511292968 13.3546461649426860  4.0007174695042931
 -4.9645453907591950 13.4020805285600790  3.9414350698576208
 -2.1122254816840522  6.1224776230977884  2.1206932127936460
  4.3688648017665317 11.3854992411002662  2.1532774090651179
 -3.3669638995430096 14.4685632390766870  2.0460723564537777
 10.4851233862053927  9.9610189376612830  5.9787672055407919
  3.9883377655480379  4.7562983283021634  5.8562967301147895
 11.5167343898492156  1.5509777731554075  6.1103426193983976
  2.7345720155418931 14.3694671917557226  2.1763071027782033
  1.1521180603945835  6.1666332813326941  2.1197855228559703
 -5.1052102079545714 11.5214111635573797  2.0590378399511851
  5.7671444795418276  1.8528365185294253  5.8388022227967218
  7.0500016831430807  9.8203831892723041  5.9411733708771868
 13.2232483826585376  4.7965605955454693  6.2221368631561891
  6.6390152407986793  4.2293442897351250  1.7055713956111584
 11.3940320167973290  3.6681240341723385  2.3283460618155711
  8.8708338466066579  8.0894072911212032  1.9061095771207492
  1.6562812747267208 11.7997133936136507  6.0554938951729689
 -2.3860334804065499 11.8398376208400418  5.9221569005840964
 -0.4479598718873581  8.4065881452651166  6.0848866105643671
  8.7697186113799681  2.5211782175100907  2.0530921067169690
 11.5157641695212991  7.0650708876401982  2.2135252726773142
  6.4219479830706341  6.7989093445103705  2.0629655973221657
 -0.3414236218346885 13.5225939408133566  5.9392866690764112
 -2.9447425897634805  9.2305278174275571  6.0053845063598867
  2.0818968682825489  9.1936854008767845  5.8823916513038155
 -1.9634476430318537  5.6915270265065860  0.5570802343131366
  4.6359143815383783 11.6993051620767350  0.5796723990890426
 -3.8342607418517143 14.5328418283808567  0.4874431483978434
 10.2873484984771295 10.3712898532099711  4.4114318175957559
  3.6954083496560295  4.3535388478429153  4.3053573809138834
 12.0195859069729725  1.5945795496612509  4.5566740388793203
  3.1431135545553652 14.3893519486320098  0.6023077859254822
  1.0931386230784217  5.7505820050320979  0.5486211120888016
 -5.4186086832851732 11.9137157761758274  0.5123045278623111
  5.2420932739643211  1.7366779865558017  4.3075848888849579
  7.2286184866978420 10.2730137989432055  4.3953158447217691
 13.3818463086795454  4.4183137967701027  4.6427673256498778
 10.2879668992672624 10.3887693238485053  7.5405048627143234
  3.7379255149424444  4.4236055818335300  7.4307099297566710
 12.1337959129316921  1.5256600955849502 -0.0085632188865688
 -2.0497937256386751  5.7600507394849911  3.7057759462901663
  4.6560589392820164 11.7735347714803424  3.7073051894720064
 -3.7799125335021784 14.4757172280167623  3.6191494582534651
  5.3343221560235383  1.7411845567333342  7.4025322115569088
  7.1899691899773153 10.2492655738914795  7.5005729634910656
 13.6051389229664981  4.3035589963052878  7.7380489602578750
  3.1732765377557683 14.4373034828407185  3.7416913595562349
  0.9833649496015200  5.7334759901765660  3.6797192434470425
 -5.3418653448955187 11.8420621112103586  3.6337463206455367
  7.1758413669202170  2.7111902158742534  1.9682309555980686
 11.6246779349835663  5.3628490374751792  2.2734984524707804
  7.2623217195845680  8.1831623961731648  2.0826802473742658
  1.2672710691134466 13.3806072766359261  5.9986448224576776
 -3.5699473298181474 10.7163613548843912  5.9028804131810277
  1.0977502494799791  7.9123746917008058  5.9623355009396297
 10.4852119616219763  8.2797439041489511  2.1291174912629502
 10.3826029635063488  2.4378943736931680  2.2617735650222528
  5.5726693941049881  5.4316829486783176  1.9873537257323817
 -2.0012442936496764  7.9129641322914557  5.9796131790509000
 -1.9492867256957072 13.4094341155030481  5.8872288688157610
  2.7967265087981632 10.6416178412615245  5.9759824406655504
  7.9491220200130401  4.0230196429534448  4.4593796199197309
 10.4282869250049046  5.3178642335891908  0.1226012048913564
  9.3755193226842319  3.1068152931551407  6.5961057160698884
  9.3733772969602889  7.6032482638056065  6.6784067464827253
 10.2492302277387672  5.2604514438103198  5.0540463905007300
  7.9368188214923681  5.3643339708464319  6.8151423485655336
  9.1078384580883451  5.3516730782466171  2.4028425193993752
  8.1373569947668383  6.7875739820124323  4.4623923374440242
