Rb16 Ce8 H1 O23
1.0
11.120804 0.000000 0.000000
11.120804 6.589554 2.173763
0.000000 0.000000 38.640468
Rb Ce H O
16 8 1 23
direct
0.000000 0.000000 0.458333 Rb
0.500000 0.500000 0.375000 Rb
0.842983 0.000000 0.375000 Rb
0.157017 0.000000 0.375000 Rb
0.500000 0.000000 0.375000 Rb
0.000000 0.500000 0.458333 Rb
0.342983 0.000000 0.458333 Rb
0.657017 0.000000 0.458333 Rb
0.000000 0.000000 0.625000 Rb
0.500000 0.500000 0.541667 Rb
0.842983 0.000000 0.541667 Rb
0.157017 0.000000 0.541667 Rb
0.500000 0.000000 0.541667 Rb
0.000000 0.500000 0.625000 Rb
0.342983 0.000000 0.625000 Rb
0.657017 0.000000 0.625000 Rb
0.833007 0.500000 0.375000 Ce
0.166993 0.500000 0.375000 Ce
0.333007 0.500000 0.458333 Ce
0.666993 0.500000 0.458333 Ce
0.833007 0.500000 0.541667 Ce
0.166993 0.500000 0.541667 Ce
0.333007 0.500000 0.625000 Ce
0.666993 0.500000 0.625000 Ce
0.596062 0.686169 0.679431 H
0.316680 0.683320 0.430787 O
0.114649 0.686169 0.498009 O
0.513013 0.686169 0.498009 O
0.486987 0.313831 0.418658 O
0.885351 0.313831 0.418658 O
0.683320 0.316680 0.485880 O
0.816680 0.683320 0.347454 O
0.614649 0.686169 0.414675 O
0.013013 0.686169 0.414675 O
0.385351 0.313831 0.335325 O
0.183320 0.316680 0.402547 O
0.316680 0.683320 0.597454 O
0.114649 0.686169 0.664675 O
0.486987 0.313831 0.585325 O
0.885351 0.313831 0.585325 O
0.683320 0.316680 0.652547 O
0.816680 0.683320 0.514120 O
0.614649 0.686169 0.581342 O
0.013013 0.686169 0.581342 O
0.986987 0.313831 0.501992 O
0.385351 0.313831 0.501992 O
0.183320 0.316680 0.569213 O
0.513013 0.686169 0.664675 O
