 O Si Au 
 1.0000000000000000
     8.9848655900000001   -0.0000010900000000   -0.0000004000000000
    -0.0000010900000000    8.9848744800000002   -0.0000018100000000
    -0.0000004000000000   -0.0000018100000000    8.9848666399999999
 O   Si  Au 
  24  12   8
Cartesian
  1.2518212888070097  4.2428924080292658  7.7518509168529866
  5.7826306145907829  8.8039171544190058  3.0930355245261003
  7.5721121249383945  1.0987424803490098  4.5079300392311179
  2.9098406198935658  5.7292416852846753  8.9791061466340043
  4.2519784714591751  7.7330642632486928  1.1925119822154269
  8.7062059140575077  2.9695672098274395  6.0281081299571007
  1.3325382852440801  4.2204268324741125  1.3355058043495569
  5.7759083000479308  8.6733365404387932  5.8670165389142968
  4.4918637081297774  7.4319431258085933  7.6766355653151317
  8.8476564681074077  3.1018796442715715  3.2429458020832045
  7.6483597945491306  4.7835770120213246  7.8372697401577662
  2.9434572709240356  8.9647609334287264  3.1660989367627574
  1.1628797947380225  1.2858217134251302  4.6002470961448179
  5.7254507973591178  5.7509254883239134  0.2639274268586717
  7.7253979719917831  4.4792908757829766  1.4201980784255988
  3.0307581474725502  8.9139006580572868  6.0161768995182801
  4.6282141154503194  1.1341224569314239  7.7836301473152769
  0.1850456139669203  5.7292043651062530  3.2013878649444889
  1.2980614538483637  7.6129628597647034  4.5438096219435922
  5.9384212007782544  3.0343062901450888  0.0887319601774085
  4.3117421723837408  1.2420329296515793  1.4138869238805734
  0.0530628646942550  5.6433833015887993  5.8000722409240142
  7.6579895874008059  7.4936459023026281  4.6322722932583069
  3.1640622526947424  2.9485727106365407  8.8810976138039788
  2.2577865893608129  4.2674742164320456  0.0075765169330618
  6.6677571593193301  8.7601674290125136  4.5202480461455972
  8.7764324116119283  2.1744841721356960  4.6195763507170691
  4.3761731383101816  6.5474140604353286  0.0612381691868288
  4.3644267469846998  8.8927210991047883  2.3561984268029939
  8.9030666262912703  4.3769283725844916  6.8787830612830767
  4.4874822895598676  8.7976329841586285  6.8429209792435381
  0.0606778464203441  4.3764386192626832  2.3310358817540151
  6.7177796744998615  4.4994618575449534  0.1019604987231792
  2.1575451819354559  0.0069987459712804  4.6080735775682227
  4.5629163794251077  2.1126691206762485  0.0879661573477475
  0.0296962215139799  6.6161519253364842  4.5561980336435042
  4.5847797460402910  3.7112049638861357  2.8179374179033330
  4.6676868999107368  4.2500067617194244  6.8331206557158657
  4.5547849305319001  2.2393432657732859  5.0299869045833914
  4.4312708250736463  6.3310825695283084  5.2441185489410564
  6.4500424437258097  4.3306300425516886  4.7414089247479119
  2.5937441644004013  4.1479586221462990  4.9686855577729467
  5.7164544492407225  6.0887892884423005  2.9730834326591991
  2.9596675104074541  5.9407573398212703  3.0073021802629407
