Sc  H Pb  C  O 
 1.0000000000000000
     9.1291100000000007    0.0000000000000000    0.0000000000000000
    -0.0000000000000000    9.6828830000000004    3.2276280000000002
     0.0000000000000000    0.0000000000000000   38.7315340000000035
 Sc  H   Pb  C   O  
  34  10  10  16   1
Selective dynamics
Cartesian
  0.0000000000000000  6.4552585609610000 15.7077899758760005   F   F   F
  4.5645550000000004  6.4552585609610000 15.7077899758760005   F   F   F
  0.0000000000000000  3.2276244390389999 18.9354112983980016   F   F   F
  4.5645550000000004  3.2276244390389999 18.9354112983980016   F   F   F
  0.0000000000000000  0.0000000000000000 15.7078060029040021   F   F   F
  4.5645550000000004  0.0000000000000000 15.7078060029040021   F   F   F
  2.2822775000000002  8.0690659390389996 17.3216103755760003   F   F   F
  6.8468325000000005  8.0690659390389996 17.3216103755760003   F   F   F
  2.2822775000000002  4.8414415000000002 20.5492349257260010   F   F   F
  6.8468325000000005  4.8414415000000002 20.5492349257260010   F   F   F
  2.2822775000000002  1.6138170609610001 17.3215908986980018   F   F   F
  6.8468325000000005  1.6138170609610001 17.3215908986980018   F   F   F
  2.2822775000000002  4.8414415000000002 17.3216200029040017   F   F   F
  6.8468325000000005  4.8414415000000002 17.3216200029040017   F   F   F
  2.2822775000000002  1.6138170609610001 14.0939759758760008   F   F   F
  6.8468325000000005  1.6138170609610001 14.0939759758760008   F   F   F
  2.2822775000000002  8.0690659390389996 20.5492252983980030   F   F   F
  6.8468325000000005  8.0690659390389996 20.5492252983980030   F   F   F
  0.0000000000000000  6.4552585609610000 22.1630585530540003   F   F   F
  4.5645550000000004  6.4552585609610000 22.1630585530540003   F   F   F
  0.0000000000000000  3.2276244390389999 25.3906798755760015   T   T   T
  4.5645550000000004  3.2276244390389999 25.3906798755760015   T   T   T
  0.0000000000000000  0.0000000000000000 22.1630358485480023   F   F   F
  4.5645550000000004  0.0000000000000000 22.1630358485480023   F   F   F
  2.2822775000000002  8.0690659390389996 23.7768402212200023   F   F   F
  6.8468325000000005  8.0690659390389996 23.7768402212200023   F   F   F
  2.2822775000000002  1.6138170609610001 23.7768594758760017   T   T   T
  6.8468325000000005  1.6138170609610001 23.7768594758760017   T   T   T
  2.2822775000000002  4.8414415000000002 23.7768498485480038   F   F   F
  6.8468325000000005  4.8414415000000002 23.7768498485480038   F   F   F
  2.2822775000000002  1.6138170609610001 20.5492445530540024   F   F   F
  6.8468325000000005  1.6138170609610001 20.5492445530540024   F   F   F
  2.2822775000000002  8.0690659390389996 27.0044938755759993   T   T   T
  6.8468325000000005  8.0690659390389996 27.0044938755759993   T   T   T
  7.7389291292000006  9.7875259165810000 30.4429439333060010   T   T   T
  8.9067340095100000  7.9798091235450004 31.7348858608060027   T   T   T
  8.7818295264900001  6.9017556618570008 30.3381879946760016   T   T   T
  6.2205299084500005  7.1176742698740005 30.3475319809700039   T   T   T
  6.3431338557500005  8.1653718933569994 31.7815573624700036   T   T   T
  5.4953316682700004  8.7179159288690009 30.3209266722840027   T   T   T
 10.3063361218300020  9.5503824290279997 30.3413156116360021   T   T   T
 10.2100331404400002  8.4071244332179997 28.9865575404500007   T   T   T
 11.0221313787100001  7.9364201248219999 30.4853129720120037   T   T   T
  6.8468325000000005  9.2085379275959998 28.4275130477440001   T   T   T
  0.0000000000000000  6.4552585609610000 18.9354048986980033   F   F   F
  4.5645550000000004  6.4552585609610000 18.9354048986980033   F   F   F
  0.0000000000000000  3.2276244390389999 15.7077963755760006   F   F   F
  4.5645550000000004  3.2276244390389999 15.7077963755760006   F   F   F
  0.0000000000000000  0.0000000000000000 18.9354209257260031   F   F   F
  4.5645550000000004  0.0000000000000000 18.9354209257260031   F   F   F
  0.0000000000000000  6.4552585609610000 25.3906734758759995   T   T   T
  4.5645550000000004  6.4552585609610000 25.3906734758759995   T   T   T
  0.0000000000000000  3.2276244390389999 22.1630262212200044   F   F   F
  4.5645550000000004  3.2276244390389999 22.1630262212200044   F   F   F
  2.2822775000000002  6.4552585609610000 15.7077899758760005   F   F   F
  6.8468325000000005  6.4552585609610000 15.7077899758760005   F   F   F
  2.2822775000000002  3.2276244390389999 18.9354112983980016   F   F   F
  6.8468325000000005  3.2276244390389999 18.9354112983980016   F   F   F
  2.2822775000000002  0.0000000000000000 15.7078060029040021   F   F   F
  6.8468325000000005  0.0000000000000000 15.7078060029040021   F   F   F
  2.2822775000000002  6.4552585609610000 22.1630585530540003   F   F   F
  6.8468325000000005  6.4552585609610000 22.1630585530540003   F   F   F
  2.2822775000000002  3.2276244390389999 25.3906798755760015   T   T   T
  6.8468325000000005  3.2276244390389999 25.3906798755760015   T   T   T
  2.2822775000000002  0.0000000000000000 22.1630358485480023   F   F   F
  6.8468325000000005  0.0000000000000000 22.1630358485480023   F   F   F
  7.6522299715300015  8.7372042318050003 30.1425679585460031   T   T   T
  8.8683369728500008  7.9529294403370008 30.6397775575160018   T   T   T
  6.3572292015900009  8.1501310355150007 30.6875787291220021   T   T   T
 10.1749317124900021  8.4964587117760004 30.0767663057640036   T   T   T
  7.6158322099600007  8.6896709591580006 28.7188710033280010   T   T   T
