Ir16 Rh12 C1 O56
1.0
9.096092 0.000000 0.000000
-0.077231 9.095764 0.000000
0.000000 0.000000 34.902274
Ir Rh C O
16 12 1 56
direct
0.000000 0.000000 0.386364 Ir
1.000000 0.500000 0.386364 Ir
0.500000 0.000000 0.386364 Ir
0.500000 0.500000 0.386364 Ir
0.000000 0.000000 0.477273 Ir
1.000000 0.500000 0.477273 Ir
0.500000 0.000000 0.477273 Ir
0.500000 0.500000 0.477273 Ir
0.000000 0.000000 0.568182 Ir
1.000000 0.500000 0.568182 Ir
0.500000 0.000000 0.568182 Ir
0.500000 0.500000 0.568182 Ir
0.000000 0.000000 0.659091 Ir
1.000000 0.500000 0.659091 Ir
0.500000 0.000000 0.659091 Ir
0.500000 0.500000 0.659091 Ir
0.250000 0.250000 0.431818 Rh
0.250000 0.750000 0.431818 Rh
0.750000 0.250000 0.431818 Rh
0.750000 0.750000 0.431818 Rh
0.250000 0.250000 0.522727 Rh
0.250000 0.750000 0.522727 Rh
0.750000 0.250000 0.522727 Rh
0.750000 0.750000 0.522727 Rh
0.250000 0.250000 0.613636 Rh
0.250000 0.750000 0.613636 Rh
0.750000 0.250000 0.613636 Rh
0.750000 0.750000 0.613636 Rh
0.594777 0.405223 0.704545 C
0.152207 0.152206 0.386364 O
0.152207 0.652207 0.386364 O
0.652207 0.152206 0.386364 O
0.652207 0.652207 0.386364 O
0.347793 0.347794 0.386364 O
0.347793 0.847794 0.386364 O
0.847793 0.347794 0.386364 O
0.847794 0.847794 0.386364 O
0.405223 0.094777 0.431818 O
0.405223 0.594777 0.431818 O
0.905223 0.094777 0.431818 O
0.905223 0.594777 0.431818 O
0.094777 0.405223 0.431818 O
0.094777 0.905223 0.431818 O
0.594777 0.405223 0.431818 O
0.594777 0.905223 0.431818 O
0.152207 0.152206 0.477273 O
0.152207 0.652207 0.477273 O
0.652207 0.152206 0.477273 O
0.652207 0.652207 0.477273 O
0.347793 0.347794 0.477273 O
0.347793 0.847794 0.477273 O
0.847793 0.347794 0.477273 O
0.847794 0.847794 0.477273 O
0.405223 0.094777 0.522727 O
0.405223 0.594777 0.522727 O
0.905223 0.094777 0.522727 O
0.905223 0.594777 0.522727 O
0.094777 0.405223 0.522727 O
0.094777 0.905223 0.522727 O
0.594777 0.405223 0.522727 O
0.594777 0.905223 0.522727 O
0.152207 0.152206 0.568182 O
0.152207 0.652207 0.568182 O
0.652207 0.152206 0.568182 O
0.652207 0.652207 0.568182 O
0.347793 0.347794 0.568182 O
0.347793 0.847794 0.568182 O
0.847793 0.347794 0.568182 O
0.847794 0.847794 0.568182 O
0.405223 0.094777 0.613636 O
0.405223 0.594777 0.613636 O
0.905223 0.094777 0.613636 O
0.905223 0.594777 0.613636 O
0.094777 0.405223 0.613636 O
0.094777 0.905223 0.613636 O
0.594777 0.405223 0.613636 O
0.594777 0.905223 0.613636 O
0.152207 0.152206 0.659091 O
0.152207 0.652207 0.659091 O
0.652207 0.152206 0.659091 O
0.652207 0.652207 0.659091 O
0.347793 0.347794 0.659091 O
0.347793 0.847794 0.659091 O
0.847793 0.347794 0.659091 O
0.847794 0.847794 0.659091 O
