 O Al Si Cu 
 1.0000000000000000
    13.6750000000000007    0.0000000000000000    0.0000000000000000
    -6.8375000000000004   11.8428974000000000    0.0000000000000000
     0.0000000000000000    0.0000000000000000   14.7669999999999995
 O   Al  Si  Cu 
  73   2  34   2
Cartesian
 11.7908974737500003  0.9919639285193760  1.8893090294300001
  5.0425538242500014  5.0936564629722278  6.3664984820399999
 -1.9013410945000002  9.0028386736029642 11.4593061489100005
  6.7056174111250018  9.5438521893653849  1.8773355028199998
  6.9427388342500000  1.9639036492568840  6.4909776468900002
  0.0374443380000002  5.7574792851959877 11.5490763662799996
  1.7667652143750001  1.2238171865071101  1.9069879341600000
  8.6376379578750004  4.9291307872773382  6.9614904460400000
  1.8391184086250005  8.9356400604628057 11.3838185739399993
 -4.9778759972500009 10.7957109883362161 13.0832344679400006
  8.6584988968750007  2.8267486124381498  3.0585240579499997
  1.8116415046250003  6.8603553823066097  8.1507414878300004
  0.0064949412500002  2.1485988450847402 12.8504480706199988
  6.7196037225000005  6.2431872991032282  2.7523164319700002
 -0.0159321271249988  9.9804666563906661  8.2852294299399993
  5.0396344168749998 10.8025783292515545 13.1593118368899997
  4.9937472022499998  2.9095699021124921  3.1263350079699999
 -1.7132586999999999  6.8052746586440795  7.7561204364399998
 11.1877687781250010  3.6667923268262217  2.6301184732799996
  4.2783454575000004  7.5053061922365485  7.2513037486199998
 -2.4550711090000004 11.4449732050646240 12.4608794006099988
  4.6569671653750007  7.8888295423624983  2.4252811338500000
  5.2648220777500008  0.1333235492020320  7.4616614356600000
 -1.8441543641250002  3.9201739589945981 12.1190286667299993
  4.2295184597499995  0.3962908225259680  2.5779670407399999
 -2.4141992006250006  4.3129547835891540  7.2596788526699996
  4.3325878919999994  8.3885876144581761 12.2328103214399988
  9.2191861359999994  0.2945546492692160  2.3714989814999998
  2.6377442888749996  4.4579125583389985  7.3899322098599995
 -4.2966624362500001  8.2927207811528643 12.3730633003500010
  2.5453029982499999  3.7476818030766759  2.4024280199899999
 -4.0541734388749999  7.3818121294475425  6.8576370884399998
  2.5489211981250008 11.3374689486292031 12.3284898492000004
  8.7542539818749994  7.9800984891812341  2.6006212431100000
  1.7127295458749989 11.7992438880387294  7.3164848436099996
  1.8955002285000004  4.0015643898050719 12.3796220633999994
 -0.0116296986250000  3.2315585047798341  2.2078475434200002
  6.8849134130000014  6.9121096729474276  7.0396260394499999
  0.0163986497500010 10.7951958222993163 11.8254325017599982
  4.1505628387499991 10.3227795658599923  1.7805231984900001
  4.4525583934999995  2.6073784788838599  7.0559307271599998
 -2.4769295708750008  6.4704502500587227 11.8982840195600001
 -4.5083638805000001 10.4948180203785206  2.0471642723399999
  9.5010105187500002  2.3904708389859519  6.9241706929599998
  2.5940385786250002  6.4506212132260066 11.7950820343299991
  6.8623872692500019  8.9288463823692954 12.7531466832499998
  6.7773861358750001  0.9689724827939380  3.0365922572199997
  0.0882901760000001  4.8534621339166995  7.8478329573200005
  2.5628787236250004  1.5077527833936419 12.8413557333800004
  9.2412634662500004  5.3838010541076322  2.7050586355599999
  2.5433858316250006  9.3844756870310420  7.8993093902900000
 11.1526118573750015  1.4480006288516820 12.6074148519999998
  4.2525902360000014  5.4650658317766920  3.2743478977099998
 -2.5889339746250006  9.5673646041474498  7.8834738501700006
 -1.7607375478750000  3.0795248356914380 14.6315688895999987
  5.4003857714999990  7.2642454368072356  4.8710852966300004
 -1.8018738623750004 11.1710201048255264  9.9134172901199999
  5.1009625526250000  8.6226697057365893 14.7164581704599993
  4.9600551475000003  0.9817247962852840  4.9991556482099995
 -1.8038971470000005  5.0146143602872000  9.7533927749099991
  3.4623110971250002  0.1039625195389780  0.1127396951900000
 10.0883644181249998  4.1070683808696336  4.9350123779799997
  3.6840570340000012  7.8365811660421523  9.7780251646000007
 10.1043217756250012  0.2149596017045820 14.7176280121999987
  3.2161668406250001  3.7066567037643621  4.9596664751599997
 -3.6213964746249996  7.7061613768536255  9.8328092578999993
  1.5651509287499996  3.0859966238336161  0.0388569977800000
  8.3137239763750017  6.5546932795659334  4.8288363189499997
  1.8236847352500005 11.1087310832315129  9.8402826889299995
  8.5481255787499997  8.7834790802273588  0.0708584158100000
  8.7470495816249993  0.8682408240946541  4.8714405906499998
  1.8455767692500000  4.7745488819553845  9.8584610135999995
 -1.3533899982499999  5.9524685643018724  4.5144121865000004
 12.1064561670000010  2.6361716416165839  1.5074493241000000
 -3.0338743043750007  7.9443400447716748  8.2289173951499990
  5.3831381777500003  6.6917012725780793  6.3970237907499996
 -1.5488691318750005 10.5909734650934695 11.4135262338600008
  5.1751497695000008  9.1148225059799355  1.4959341651700000
  5.4039212376250010  1.4073558049748820  6.5062272324499997
 -1.5156407280000004  5.2912135190923797 11.3413547364099987
  2.9368564698749999  0.1021370553337420  1.6473142262499998
  9.8528365427500013  3.9214893496088159  6.5392963045799997
  3.1054608781250002  7.9126351872841862 11.3032803896299985
 10.5685619063750007  0.0215603500036220  1.5003515655499999
  3.8457228156249994  3.9820111740528024  6.4438311936600003
 -3.0973585773750001  7.8838692632154821 11.3494244588999997
  1.4791268369999999  2.8087939509769320  1.6334071086599999
  8.3371024145000003  6.4596389874512354  6.4421183693300001
  1.5480901354999999 10.5440626826313046 11.3481246675599987
  8.2793991110000000  9.2034800939219714  1.6217213908799999
  8.4181363620000003  1.2769113825597640  6.4094967372999996
  1.5770940583750002  5.2458084426056502 11.3983027858899995
 -5.2908017060000008  9.2010904340846000 13.2614745206599984
  8.3514376435000024  1.2385446584268280  3.3361708292299999
  1.5967210337500002  5.2507967894195033  8.3264249298399999
  1.4961625366250002  2.6769802527644257 13.2246473946999998
  8.2460285555000006  6.5659344393490402  3.2130887702499997
  1.5036243003749989 10.5612676886871029  8.3393081036499996
 10.6375007949999993  0.0267329723010200 13.1994444081300006
  3.7692604206249998  3.9401642960899022  3.4426479873900000
  3.0656363380000000  0.0296993812417720 13.3016214158899988
  9.7582142947499992  3.9821775667612722  3.3412385682900001
  3.0748486384999998  7.8961180167093801  8.2715392395799991
  5.3268373822499999  9.1994539825218684 13.2119569302399995
  5.2437715348750000  1.3186581880396340  3.4351340947800000
 -1.4479528967500002  5.2511906841870282  8.2001009236799991
 12.1379866828750007  2.6585320977685498 13.0966160279999997
  5.2682331697500011  6.7121082428039163  3.3424741231800001
 -1.5209694652500003 10.6462657029035643  8.3861283538500011
 -0.9312212785000005  4.5743468331299164  3.4612744905099997
 -2.4418666657500001  6.5099750911284042  5.8426813906600001
