Zr  H  C  O 
 1.0000000000000000
    10.9603059999999992    0.0000000000000000    0.0000000000000000
     0.0000000000000000   11.6360440000000001    0.0000000000000000
     0.0000000000000000    0.0000000000000000   30.2313280000000013
 Zr  H   C   O  
  48  34  30   1
Selective dynamics
Cartesian
  1.2788704246919997  2.9090110000000000 10.9168650854080003   F   F   F
  1.2788704246919997  8.7270330000000005 10.9168650854080003   F   F   F
  6.7590234246919989  2.9090110000000000 10.9168650854080003   F   F   F
  6.7590234246919989  8.7270330000000005 10.9168650854080003   F   F   F
  1.2788704246919997  0.0000000000000000 12.5963967437760012   F   F   F
  1.2788704246919997  5.8180220000000000 12.5963967437760012   F   F   F
  6.7590234246919989  0.0000000000000000 12.5963967437760012   F   F   F
  6.7590234246919989  5.8180220000000000 12.5963967437760012   F   F   F
  4.2002961477679994  1.9393445453480000 12.5963967437760012   F   F   F
  4.2002961477679994  7.7573665453479999 12.5963967437760012   F   F   F
  9.6804491477679999  1.9393445453480000 12.5963967437760012   F   F   F
  9.6804491477679999  7.7573665453479999 12.5963967437760012   F   F   F
  4.2002961477679994  4.8483555453480003 10.9168650854080003   F   F   F
  4.2002961477679994 10.6663775453480003 10.9168650854080003   F   F   F
  9.6804491477679999  4.8483555453480003 10.9168650854080003   F   F   F
  9.6804491477679999 10.6663775453480003 10.9168650854080003   F   F   F
  1.2788704246919997  2.9090110000000000 14.2758981708159993   F   F   F
  1.2788704246919997  8.7270330000000005 14.2758981708159993   F   F   F
  6.7590234246919989  2.9090110000000000 14.2758981708159993   F   F   F
  6.7590234246919989  8.7270330000000005 14.2758981708159993   F   F   F
  1.2788704246919997  0.0000000000000000 15.9554298291840002   F   F   F
  1.2788704246919997  5.8180220000000000 15.9554298291840002   F   F   F
  6.7590234246919989  0.0000000000000000 15.9554298291840002   F   F   F
  6.7590234246919989  5.8180220000000000 15.9554298291840002   F   F   F
  4.2002961477679994  1.9393445453480000 15.9554298291840002   F   F   F
  4.2002961477679994  7.7573665453479999 15.9554298291840002   F   F   F
  9.6804491477679999  1.9393445453480000 15.9554298291840002   F   F   F
  9.6804491477679999  7.7573665453479999 15.9554298291840002   F   F   F
  4.2002961477679994  4.8483555453480003 14.2758981708159993   F   F   F
  4.2002961477679994 10.6663775453480003 14.2758981708159993   F   F   F
  9.6804491477679999  4.8483555453480003 14.2758981708159993   F   F   F
  9.6804491477679999 10.6663775453480003 14.2758981708159993   F   F   F
  1.2788704246919997  2.9090110000000000 17.6349312562240002   T   T   T
  1.2788704246919997  8.7270330000000005 17.6349312562240002   T   T   T
  6.7590234246919989  2.9090110000000000 17.6349312562240002   T   T   T
  6.7590234246919989  8.7270330000000005 17.6349312562240002   T   T   T
  1.2788704246919997  0.0000000000000000 19.3144629145920028   T   T   T
  1.2788704246919997  5.8180220000000000 19.3144629145920028   T   T   T
  6.7590234246919989  0.0000000000000000 19.3144629145920028   T   T   T
  6.7590234246919989  5.8180220000000000 19.3144629145920028   T   T   T
  4.2002961477679994  1.9393445453480000 19.3144629145920028   T   T   T
  4.2002961477679994  7.7573665453479999 19.3144629145920028   T   T   T
  9.6804491477679999  1.9393445453480000 19.3144629145920028   T   T   T
  9.6804491477679999  7.7573665453479999 19.3144629145920028   T   T   T
  4.2002961477679994  4.8483555453480003 17.6349312562240002   T   T   T
  4.2002961477679994 10.6663775453480003 17.6349312562240002   T   T   T
  9.6804491477679999  4.8483555453480003 17.6349312562240002   T   T   T
  9.6804491477679999 10.6663775453480003 17.6349312562240002   T   T   T
  3.3523520740779995  2.9090110000000000 10.9168650854080003   F   F   F
  3.3523520740779995  8.7270330000000005 10.9168650854080003   F   F   F
  8.8325050740780000  2.9090110000000000 10.9168650854080003   F   F   F
  8.8325050740780000  8.7270330000000005 10.9168650854080003   F   F   F
  3.3523520740779995  0.0000000000000000 12.5963967437760012   F   F   F
  3.3523520740779995  5.8180220000000000 12.5963967437760012   F   F   F
  8.8325050740780000  0.0000000000000000 12.5963967437760012   F   F   F
  8.8325050740780000  5.8180220000000000 12.5963967437760012   F   F   F
  3.3523520740779995  2.9090110000000000 14.2758981708159993   F   F   F
  3.3523520740779995  8.7270330000000005 14.2758981708159993   F   F   F
  8.8325050740780000  2.9090110000000000 14.2758981708159993   F   F   F
  8.8325050740780000  8.7270330000000005 14.2758981708159993   F   F   F
  3.3523520740779995  0.0000000000000000 15.9554298291840002   F   F   F
  3.3523520740779995  5.8180220000000000 15.9554298291840002   F   F   F
  8.8325050740780000  0.0000000000000000 15.9554298291840002   F   F   F
  8.8325050740780000  5.8180220000000000 15.9554298291840002   F   F   F
  3.3523520740779995  2.9090110000000000 17.6349312562240002   T   T   T
  3.3523520740779995  8.7270330000000005 17.6349312562240002   T   T   T
  8.8325050740780000  2.9090110000000000 17.6349312562240002   T   T   T
  8.8325050740780000  8.7270330000000005 17.6349312562240002   T   T   T
  3.3523520740779995  0.0000000000000000 19.3144629145920028   T   T   T
  3.3523520740779995  5.8180220000000000 19.3144629145920028   T   T   T
  8.8325050740780000  0.0000000000000000 19.3144629145920028   T   T   T
  8.8325050740780000  5.8180220000000000 19.3144629145920028   T   T   T
  4.3447639411539996  3.7716723940280001 21.9172895614080012   T   T   T
  5.8513676039140003  4.5737798150800000 21.5361027466560024   T   T   T
  5.8516635321759995  0.2732724933400000 21.5383096336000008   T   T   T
  4.3447639411539996  1.0763806141760000 21.9169872481279988   T   T   T
  5.3763589021799998  4.5707777157280001 23.9969933085119997   T   T   T
  6.8940653549179993  3.7625730076199999 23.6117857271359988   T   T   T
  6.8940653549179993  1.0854800005840000 23.6115136451840009   T   T   T
  5.3764575449339995  0.2771705680800000 23.9966909952320009   T   T   T
  5.6569646563919997  2.4239741419040000 25.2519864277760036   T   T   T
  4.2172627014559998  2.4240788662999999 24.2360021876800005   T   T   T
  0.0244086014620000  3.8786774546519998 12.5963967437760012   F   F   F
  0.0244086014620000  9.6966994546520002 12.5963967437760012   F   F   F
  5.5045616014619991  3.8786774546519998 12.5963967437760012   F   F   F
  5.5045616014619991  9.6966994546520002 12.5963967437760012   F   F   F
  0.0244086014620000  0.9696664546520001 10.9168650854080003   F   F   F
  0.0244086014620000  6.7876884546519998 10.9168650854080003   F   F   F
  5.5045616014619991  0.9696664546520001 10.9168650854080003   F   F   F
  5.5045616014619991  6.7876884546519998 10.9168650854080003   F   F   F
  0.0244086014620000  3.8786774546519998 15.9554298291840002   F   F   F
  0.0244086014620000  9.6966994546520002 15.9554298291840002   F   F   F
  5.5045616014619991  3.8786774546519998 15.9554298291840002   F   F   F
  5.5045616014619991  9.6966994546520002 15.9554298291840002   F   F   F
  0.0244086014620000  0.9696664546520001 14.2758981708159993   F   F   F
  0.0244086014620000  6.7876884546519998 14.2758981708159993   F   F   F
  5.5045616014619991  0.9696664546520001 14.2758981708159993   F   F   F
  5.5045616014619991  6.7876884546519998 14.2758981708159993   F   F   F
  0.0244086014620000  3.8786774546519998 19.3144629145920028   T   T   T
  0.0244086014620000  9.6966994546520002 19.3144629145920028   T   T   T
  5.5045616014619991  3.8786774546519998 19.3144629145920028   T   T   T
  5.5045616014619991  9.6966994546520002 19.3144629145920028   T   T   T
  0.0244086014620000  0.9696664546520001 17.6349312562240002   T   T   T
  0.0244086014620000  6.7876884546519998 17.6349312562240002   T   T   T
  5.5045616014619991  0.9696664546520001 17.6349312562240002   T   T   T
  5.5045616014619991  6.7876884546519998 17.6349312562240002   T   T   T
  5.9265662633799998  2.4240788662999999 21.3262973303360006   T   T   T
  5.4335607391939993  3.6880790539319999 22.0296896389120000   T   T   T
  5.4335607391939993  1.1601717670200000 22.0293873256320012   T   T   T
  5.8044574942339997  3.6879743295359999 23.5089992119360005   T   T   T
  5.8044574942339997  1.1599739542720000 23.5087875926400010   T   T   T
  5.3139618801220001  2.4239741419040000 24.2113031927040012   T   T   T
  5.4796597862299992  2.4241719546520000 19.9747151181120017   T   T   T
