KPOINTS created by Atomic Simulation Environment
0
Monkhorst-Pack
5 2 1 
0 0 0
