Mn  H Au  O 
 1.0000000000000000
    10.9537530000000007    0.0000000000000000    0.0000000000000000
     7.3025019999999996    6.1543510000000001    0.0000000000000000
     0.0000000000000000    0.0000000000000000   34.7828360000000032
 Mn  H   Au  O  
  16   2  16  27
Cartesian
  9.1281274999999997  3.0771755000000001 13.4388356483039999
  3.6512509999999998  3.0771755000000001 13.4388356483039999
 11.8665657500000012  3.0771755000000001 11.8577818379240014
  6.3896892500000000  3.0771755000000001 11.8577818379240014
  9.1281274999999997  3.0771755000000001 16.6009084862280005
  3.6512509999999998  3.0771755000000001 16.6009084862280005
 11.8665657500000012  3.0771755000000001 15.0198546758480003
  6.3896892500000000  3.0771755000000001 15.0198546758480003
  9.1281274999999997  3.0771755000000001 19.7629813241520012
  3.6512509999999998  3.0771755000000001 19.7629813241520012
 11.8665657500000012  3.0771755000000001 18.1819275137720027
  6.3896892500000000  3.0771755000000001 18.1819275137720027
  9.1281274999999997  3.0771755000000001 22.9250541620760018
  3.6512509999999998  3.0771755000000001 22.9250541620760018
 11.8665657500000012  3.0771755000000001 21.3440003516959997
  6.3896892500000000  3.0771755000000001 21.3440003516959997
  8.2153147500000010  1.3296536879009999 25.1883385177600019
  8.2153184012510003  2.9207565149840002 25.0171026161320036
  2.7384382500000002  0.0000000000000000 11.8577818379240014
  8.2153147500000010  0.0000000000000000 11.8577818379240014
  0.0000000000000000  0.0000000000000000 13.4388356483039999
  5.4768765000000004  0.0000000000000000 13.4388356483039999
  2.7384382500000002  0.0000000000000000 15.0198546758480003
  8.2153147500000010  0.0000000000000000 15.0198546758480003
  0.0000000000000000  0.0000000000000000 16.6009084862280005
  5.4768765000000004  0.0000000000000000 16.6009084862280005
  2.7384382500000002  0.0000000000000000 18.1819275137720027
  8.2153147500000010  0.0000000000000000 18.1819275137720027
  0.0000000000000000  0.0000000000000000 19.7629813241520012
  5.4768765000000004  0.0000000000000000 19.7629813241520012
  2.7384382500000002  0.0000000000000000 21.3440003516959997
  8.2153147500000010  0.0000000000000000 21.3440003516959997
  0.0000000000000000  0.0000000000000000 22.9250541620760018
  5.4768765000000004  0.0000000000000000 22.9250541620760018
 10.9537530000000007  2.0653509607920002 13.4388356483039999
  5.4768765000000004  2.0653509607920002 13.4388356483039999
 15.5178167500000015  4.0890000392079999 11.8577818379240014
  7.3025020000000005  4.0890000392079999 13.4388356483039999
 12.7793785000000000  4.0890000392079999 13.4388356483039999
 10.9537530000000007  2.0653509607920002 16.6009084862280005
  5.4768765000000004  2.0653509607920002 16.6009084862280005
  8.2153147500000010  2.0653509607920002 15.0198546758480003
  2.7384382500000002  2.0653509607920002 15.0198546758480003
 10.0409402499999985  4.0890000392079999 15.0198546758480003
 15.5178167500000015  4.0890000392079999 15.0198546758480003
  7.3025020000000005  4.0890000392079999 16.6009084862280005
 12.7793785000000000  4.0890000392079999 16.6009084862280005
 10.9537530000000007  2.0653509607920002 19.7629813241520012
  5.4768765000000004  2.0653509607920002 19.7629813241520012
  8.2153147500000010  2.0653509607920002 18.1819275137720027
  2.7384382500000002  2.0653509607920002 18.1819275137720027
 10.0409402499999985  4.0890000392079999 18.1819275137720027
 15.5178167500000015  4.0890000392079999 18.1819275137720027
  7.3025020000000005  4.0890000392079999 19.7629813241520012
 12.7793785000000000  4.0890000392079999 19.7629813241520012
 10.9537530000000007  2.0653509607920002 22.9250541620760018
  8.2153147500000010  2.0653509607920002 21.3440003516959997
  2.7384382500000002  2.0653509607920002 21.3440003516959997
 10.0409402499999985  4.0890000392079999 21.3440003516959997
 15.5178167500000015  4.0890000392079999 21.3440003516959997
  8.2153147500000010  2.0653509607920002 24.5060731896200004
