INCAR created by Atomic Simulation Environment
 ENCUT = 350.000000
 POTIM = 0.000000
 ZAB_VDW = -1.886700
 EDIFFG = 0.00e+00
 SYMPREC = 1.00e-10
 GGA = Bf
 IBRION = -1
 ISIF = 3
 ISPIN = 1
 ISYM = 0
 IWAVPR = 11
 LMAXMIX = 2
 NSW = 2000
 NCORE = 4
 LAECHG = .TRUE.
 LUSE_VDW = .TRUE.
 LWAVE = .FALSE.
 LBEEFENS = .TRUE.
 INTERACTIVE = .TRUE.
 LREAL = Auto
