 O Si Al Cu 
 1.0000000000000000
    18.2560000000000002    0.0000000000000000    0.0000000000000000
     0.0000000000000000   20.5339999999999989    0.0000000000000000
     0.0000000000000000    0.0000000000000000    7.5419999999999998
 O   Si  Al  Cu 
  97  46   2   2
Cartesian
  5.1294706167942916 20.4467530685514589  0.0753621394200002
 14.1692775405999871 10.2872641169799923  0.1394511295457143
 13.1678314469942688 20.4785822799200155  0.1677472760314286
  3.9120414481314318 10.5503859848771402  7.3218370221257185
  5.1169870373771502  0.0922000411457144  3.7181589094085750
 14.3227786906399643 10.1886934069742914  3.6510458163371453
 13.2152112713371217 20.4729243167657096  3.6368044553142931
  3.8482288422228570  9.9910715118685776  3.5350909624885754
  5.9197460277828551  1.7806312068885712  1.7770156015799994
 15.0327007459028739 12.0893605359285736  1.9239366698971447
 12.3651456191028686  1.7983480699400007  1.9043818911942836
  2.7886323087485776 11.7696785980400112  1.8791647845171433
  5.9798777430285606 18.9165766754457572  5.5858226321971518
 15.2566286837485681  8.8163192655485663  5.7460476297542824
 12.1154499493657237 19.1217360332628630  5.6676132372857229
  2.8612333088057174  8.7305851936371806  5.7183643782000031
  6.9786840157428545  1.6737500454914294  6.8831530272600050
 15.9359184007085766 12.1725562661285593  6.9957061598314247
 11.2664048937257171  1.6973360055599991  7.0396897407571455
  2.4096441271257101 12.7403344565828753  6.9804075392914262
  6.9579579885485803 18.8012064296114190  3.1461234579371444
 16.1342285651885824  8.2457355709542934  3.3628056008514284
 11.1787195258971384 18.8027252830571427  3.2286584604400046
  2.3265552043028541  7.8214337700714234  3.2977562152114270
 11.4028034871942854 18.5109258217828412  0.5672175007228573
  2.2558415460171393  8.7258650055371287  0.7696104383514285
  6.7182194951314269 18.3226211226256908  0.5015167380742854
 16.0483781856114263  8.4948672342514264  0.6893958123971431
 11.4091749338000117  1.7526777876971422  4.3545243272114247
  2.1518668901257159 11.8009862039800186  4.4767338339657048
  6.9274293868514265  1.9822649825999992  4.1980208460314365
 16.1753768989828473 11.9953472388371427  4.3161605582114291
  4.4385637415428567  2.4321196249028532  7.1743826065714247
 13.3666868334800295 12.7617986193257291 -0.0481076150200000
 13.8272116336399833  2.4561297634885717  7.3170558521800118
  4.8155161303199980 12.8954110020685686  0.5987219320028587
  4.3998592157828629 18.1290887766000246  3.5579531617028577
 13.5968500401714376  7.6893007808428555  3.9874687266857163
 13.6183706845428780 17.8777985709200244  3.8832826890971432
  4.8178082601657239  7.6821209507371488  4.3095851295800012
 13.8938543489657214 17.9870871310143130 -0.2527221343000001
  4.7387366923771399  8.0728897943999769  0.0046358639485714
  4.1501138703199958 18.0384323741514088  7.2923453938457206
 13.5776263451714510  7.7325118881428612 -0.0626532979085714
 13.9854493651542864  2.4299360247885708  3.9223909208828567
  4.6159565734571473 12.5166735203285562  3.6497690673371448
  4.3139295344800059  2.5503119181371434  3.7519140511714308
 13.5923350281314068 12.6670360472314378  4.1070238507400045
  5.8808881513942826  6.9769638083114200  1.9989674358885710
 15.0654205569143045 16.9198376718000176  1.8963918831599991
 12.3381572496285621  6.5530918712514170  1.9380265386199995
  3.0165612129600006 16.7430726065771012  1.8006359062600004
  5.6617357634914178 13.9300763577942899  5.8131702976628628
 15.0705323147371235  4.1129665805171358  5.6756014543542879
 12.4064360337371440 14.4483409580514284  5.6588499266485792
  3.3060444794571429  4.2143806528942873  5.5660871185171406
  4.5542811708742779  5.0652309266199866  0.2176001654371430
 13.7246708735999992 15.3699796794685781  0.2354469987142860
 13.6938847437942997  5.0829272724456978  0.1929949443914285
  4.7610584903257163 15.5220184459742647  0.2406748397485715
  4.4010066825828487 15.4643107008371370  3.7070278766685698
 13.7169705395543016  5.0479726920228583  3.5934800315714281
 13.8545074944628848 15.2484902952657055  3.5599224279085711
  4.7726827831600032  5.1276432700057164  3.5223496238400038
  6.9811351289942873  6.4546186526542817  6.9429994237028581
 16.0441204204685128 16.4750534990800084  7.0458286196857243
 11.4069749931828426  6.2829468764000049  7.0469132791085913
  2.3151253692342895 16.1382754039857268  6.8894646780542992
  6.7484455998057111 13.9030030142228433  3.0776494488199972
 16.1009718362971590  3.9209117315485678  3.2583301211657103
 11.5157972655428544 14.0431208153085869  3.1851586355828578
  2.3222597544914283  4.2123776971000062  3.1094325568000043
 11.2958734595200010 14.3263764965514326  0.5144517826342849
  2.2764628181142830  3.7195739630142830  0.4421797343657138
  7.0619331769371501 14.2606106894342961  0.4976255361057140
 15.9797269875085473  3.8010830643857125  0.5906314772714281
 11.4407127715371519  6.2364188289514120  4.3697514558000110
  2.1996326050400010 16.8584228322971263  4.2988874468428566
  7.0685347052457166  6.2661241287285723  4.2694090610399913
 15.9434349978857330 16.6826187720828472  4.3743472847371327
  0.0455992421828571  8.0164841970542948  1.9650496176599999
  9.0754753468342830 18.2071712225028719  1.6999109259799994
  0.0160670112800000 12.4767798120885693  5.8737016142314085
  9.1540320597828533  2.3558605328371409  5.5670231037771485
  1.8463437810457146  6.1560554608885703  1.3099114219171424
 11.0303296247656970 16.4195714669656923  2.1445801493685774
 16.3921162747428681  6.1245584428171425  1.7884842244400019
  7.2343506678285729 16.3516420053371547  2.2108145654371465
  1.7325664742971461 14.3517824332828550  5.0021962982771484
 11.2694222037200085  3.9937387355628524  5.7442498396800010
 16.3680465358914731 14.3373876985314332  5.5130686075828628
  7.1138411898628586  4.0817742829228596  5.7840992838514369
  0.0422928376685714  4.2458536889828657  1.8044248951114275
  9.1653829777599967 14.4947295646485887  2.0780884936914310
 -0.0115110432628571 16.2599499593114274  5.6327777901657123
  9.2172479036171246  5.7209435004085645  5.6792888796628551
  6.4431367016514276 10.4929279105057525  1.8340807097571421
  5.6093745249142799  1.4655538401685737  0.2107134438685714
 14.6327871114685681 11.8307804568486059  0.3661300140428576
 12.6530504338171532  1.4826395226685689  0.3363106988200004
  3.4607547344399903 11.9813934023000073  0.4104623170485709
  5.6044338263428610 19.1057771533514007  4.0126944269914357
 14.8203540407771470  8.7316562691799966  4.1853684842028587
 12.5372683306400212 19.0633995847485629  4.1003613553371494
  3.4497294934514318  8.5552463161942942  4.2105605076828549
 12.6455299717771474 19.0229356696171692  7.2002018442971591
  3.4321156512057120  8.9897712349571446  7.2221114241228559
  5.5018511131142764 18.9375197275742835  7.1411960895514230
 14.7596107268000036  8.8192646144685654  7.2918010123428632
 12.7418759674971422  1.4917142214257166  3.4570221233885707
  3.3392412603828534 11.5391420355885490  3.4003343430085726
  5.5788851364171395  1.6082829434457147  3.3591174211657173
 14.7836482725599883 11.7417606340800091  3.4932818520428510
 14.6668690945371392 16.6880914677085954  0.3403621534457144
 12.7692952636742874  6.3996394792657032  0.3848911002199999
  3.5594928531657133 16.6165742880285627  0.2796390006942852
 14.7089106694628704  3.8742153941771416  4.1104940608371514
 12.8463760310800090 14.1129910980914435  4.1273707014542902
  3.6771465863542852  4.0219164936000036  3.9970773580885735
 12.7099972429485906 14.2257699044114201  7.2428168144771430
  3.6760981605485687  3.8788006209171426  7.1274444356828690
  5.5616899695257098 14.1778673143971332  7.3774540259057133
 14.6308132042342987  3.8648798389657126  7.2195808173542844
 12.7919718185028675  6.3734996787285692  3.4819149085771444
  3.5374497839885790 16.7644224698343329  3.3498062042428582
  5.6379384995428632  6.4894566348571479  3.5429355686828554
 14.6113282531828581 16.6807276057314056  3.4363457755199982
  1.6167617740342863  7.6696446473342910  1.8355109370028559
 10.6671254535028552 17.9888493549686039  1.9135802277657128
 16.7116319541885048  7.7063837939571425  1.9455726443514312
  7.4858625831885668 17.9318972978171338  1.8806051400657129
  1.5675266850685712 12.8471486460142721  5.5851102333600107
 10.7641082278857176  2.4485784814685654  5.6775910780914263
 16.6793194888742669 12.7521429661000045  5.6728955613971399
  7.5399862367771382  2.5245954697885709  5.6082883006142890
  1.6338251739657124  4.5711505893828539  1.6742399461285713
 10.7565326450685710 14.8282607433085953  1.9730092813342870
 16.7000743068113984  4.5252058946342846  1.8630739691714264
  7.5738347929314234 14.7877290707114462  1.9612156959428566
  1.5691475665028560 15.9196621723685610  5.4614335361085837
 10.8192576911028535  5.5593195931685759  5.7112136400228701
 16.6558397734171884 15.9367964452228623  5.6368676526257131
  7.5950156935657169  5.6441877258714284  5.7025986627200016
  5.5169511115942838  6.4719798447600159  0.3099776176457141
  5.3069731977657053 14.0916643631371503  4.1428004982457054
  5.7680973936342834  8.9040143581171378  1.5484597003085729
  6.1373964626571453 12.1462643125028738  2.3507960479142844
