 O Si Au 
 1.0000000000000000
    13.7065166200000004   -0.0000588000000000    0.0000243500000000
    -6.8533092299999998   11.8701637400000006   -0.0000225700000000
     0.0000263400000000   -0.0000129700000000   14.8090446000000000
 O   Si  Au 
  72  36   8
Cartesian
 11.4160208833202255  1.2445219835687968  2.2207139166744079
  4.8702818973711981  4.9794433546140935  6.5197778446843380
 -2.2681156071336575  9.0608431150562918 11.8587983170036377
  6.5443987633056411  9.6684252966751600  1.7881471654963161
  6.7018799301768803  1.6311205091246512  6.3353096873475705
 -0.0977357525787533  5.8571730842150913 12.0091341075226890
  1.6086952277015441  1.1347810580668765  2.1341240998247630
  8.4950935723792416  4.9478369872888832  6.7882343793684496
  1.6053067418204068  8.9840337318130974 11.7241081194296122
 -5.1774683766115537 10.6886431680674114 13.1187064378399079
  8.5776113982414337  2.9490352452055291  3.1642649177306899
  1.5279584331363907  6.8432444700949624  8.5438516832344540
 -0.3264603410979450  2.3338904326505867 13.4690069239115999
  6.5443307248811058  6.3035257077754414  3.2363963341124138
 -0.2346336839461644 10.0486432166743018  8.4868775716983240
  4.7609467758284048 10.8371421537047734 13.3151949659698783
  4.6138035470298240  2.9841426960734241  3.3508601002129592
 -1.9689462977659962  6.8412924426180197  8.3058826371952303
 11.0273744985778226  3.9175140491071883  2.6811956097409952
  4.0232697943513909  7.4349267097423093  7.6135078777064429
 -2.7325282908274651 11.5178462876229855 12.4732587348381294
  4.4818433326749005  8.0289643708408533  2.6646228324776633
 -2.0164561197660533 11.8205577430435760  7.4729542894314251
 -2.0115197251393213  4.1482387705734256 12.5455011386435888
  4.1928759062247423  0.4777443986330923  2.5260204209487678
 10.8947432348042383  4.3662937498922618  7.7217764440566317
  4.1040666998059425  8.3626097498405780 12.5125892872778604
  8.9809883844264196  0.3879599295806244  2.4741726185647197
  2.4114088876921178  4.4829442843920244  7.6731070435704405
  8.9424333437184433  8.1461744207246394 12.4502516983397893
  2.1395594583169788  3.6697660674845203  2.7073498404515086
  9.2713791907646268  7.5049566089436190  7.3601380889255612
  2.2729412442782895 11.3691607742959135 12.5916882825225080
  8.5115861248512701  8.0873328920834151  2.8670978652522554
  1.6785538104298023 11.7294195477145262  7.2826439777431125
  1.6491025266953143  3.9532234736599503 12.6738468434583584
 -0.3561136830782873  2.9875139385243945  2.0725434236458580
  6.5821774118476810  6.9026645672382037  7.2512574468547717
 -0.2821063709805534 10.8534743249229582 11.7984238005193767
  4.0371317247364891 10.4837256583853069  2.2027336404758819
  4.1468993340065818  2.4897370086711166  7.1194763321936332
 -2.7981023963684279  6.5242264810126986 11.9086564668370158
 -4.5880237947592581 10.4845208648864698  2.2700799219791294
  9.1271764935208797  2.4944526546047308  7.2590558301939501
  2.5510803475569701  6.3549011898432317 11.9564808208192641
  6.5636795508724370  8.8351630680016076 13.1305373553767915
  6.6517829657414955  1.2663722617795246  3.4967932543234421
 -0.1700654250824700  4.9740625443406232  8.1219295160987066
  2.1524251023374403  1.3858552015260617 12.8549983659964742
  9.0887451510120876  5.5595146456982496  3.1786533402710866
  2.2305895816515453  9.3400084759520983  7.8712845082730105
 10.9505331547955205  1.5466364147419100 12.9877803461614203
  3.9901030091191632  5.5662365939107836  3.4747561583781010
 -2.7533283559017341  9.4267284759086039  7.8838491976009815
 11.4840518728879744  3.1500252690024126  0.2641899699684142
  4.9839356992674766  7.2684985245971925  5.2109682297764293
 -2.2791236522415899 10.9851998793938233  9.9888668436809294
  4.7072901083205094  8.7665590347791067  0.1297024447023991
  4.5734762426765023  0.7736507219755582  5.1142134083727857
 -1.8718513025279522  5.0007409145350668 10.0809351588492913
  3.2839952639209975  0.1044605290283080  0.1516941940919569
 10.2639440591707753  3.9421480543097140  5.1619223045584706
  3.2348152736469515  8.0541079955324051 10.0497356421069792
  9.9706004506169386  0.1345584057818852  0.2390924417446290
  2.9044605526033989  3.8202160108706895  5.1649823618864890
 -3.7370345504018125  7.9015870888936561  9.9180723163382005
  1.6180194444960392  3.0543914982767122  0.2227314884318965
  8.1019599800265141  6.9213014540308428  5.1556209742518240
  1.7177626564530926 10.9210340026325348 10.0250662688037284
  8.4268229221308797  8.7707373186254252  0.2114465339170031
  8.8523336402358197  1.0465621876485360  5.0454834056352658
  1.3985215097603372  4.7349935485303094 10.1736644800553702
 11.7983549718654004  2.7913828267294352  1.8234854990849876
  5.0695542432729965  6.6160181214343394  6.7004072733050215
 -1.8424004937604799 10.5943263107668688 11.5270526216087177
  4.9303671250847394  9.2276866272447329  1.6837742400154849
  5.1349448485311102  1.2747369060178431  6.5918906476571211
 -1.6381263075335741  5.4469516499960244 11.6003016939408869
  2.7981130099068596  0.0667067952694292  1.7861557692323147
  9.7251929715925147  3.8927516603698584  6.7358866274243576
  2.8789184295717405  7.9206278178330187 11.5701738121972824
 10.3653282476828181  0.0873797709219160  1.7781252176182827
  3.5965323090545476  3.9654670367970302  6.6651463462132154
 -3.4337669128000310  7.9538171109836018 11.5423492575645898
  1.2284232725504991  2.7155978704012114  1.7838358591943473
  8.1264183354886210  6.5217990965343455  6.7168487526449754
  1.3289066442495323 10.5350075585961100 11.5922567553030333
  8.1334038990326576  9.2083545539405343  1.7351221643907428
  8.3046938630762721  1.2394209794897004  6.5410778884492302
  1.3712439844724620  5.2165272104316385 11.7310477074720723
  8.1363609887138626  9.1235322793015889 13.4623399470936604
  8.2597757099216178  1.4021404540778122  3.5159263158796312
  1.3684171127692957  5.2338680506109521  8.6295376450424310
  1.2718899934692218  2.6449479995642688 13.5187176782138856
  8.0543098993664941  6.6891221265369456  3.5981015964210075
  1.3298755175625518 10.5713389633054184  8.4591317422124757
 10.4029867032752996  0.0927845249548201 13.4698374099843754
  3.4852769165451645  4.0475789173292949  3.6989825571054316
 -3.1962970173398335  7.9132978987087261  8.3848685924506103
  2.8238116585135509  0.0008124913564184 13.4325696528958716
  9.6509887173586328  4.0828779366345858  3.6205689260563250
  2.7348023206066459  7.9536071818928820  8.5081953410859033
  5.0446929835820074  9.2418204146112117 13.4363028643974136
  5.0015943486067087  1.3592443866231869  3.6331765070849875
 -1.7077952202330411  5.2721491086931982  8.5252262699107568
 11.8564841370230543  2.8807475763936270 13.5016851415471439
  5.0406389637141507  6.8048262119731016  3.6426635166916999
 -1.7966555175493979 10.5976643024439312  8.4668284969899616
  6.7165143398502059  3.7540953957516296  8.5057594900272804
  6.5779935709752300  1.9840652158328242 11.9209400251617623
  6.8032232098179817  1.3253714600067714  9.3947627868757042
  6.6051710934482442  4.5178744495241085 11.6174518089272656
  8.6784392195710041  3.1442169420620196 10.3848353455879714
  4.7313998453446029  3.0673894651627731 10.2590451149215696
  8.1879193194109501  5.8314477050180322  9.8574796732560870
  5.3494295405535084  5.7877781786117319  9.6820501326039743
