Li32 Se8 O40
1.0
10.568553 0.000000 -0.694875
7.375579 4.864541 -0.263872
0.000000 0.000000 39.494618
Li Se O
32 8 40
direct
0.378193 0.605694 0.429229 Li
0.878193 0.605694 0.429229 Li
0.898964 0.167149 0.470771 Li
0.398964 0.167149 0.470771 Li
0.328111 0.911695 0.311330 Li
0.828111 0.911695 0.311330 Li
0.866780 0.043414 0.388670 Li
0.366780 0.043414 0.388670 Li
0.571889 0.288305 0.488670 Li
0.071889 0.288305 0.488670 Li
0.533220 0.156586 0.411330 Li
0.033220 0.156586 0.411330 Li
0.521807 0.594306 0.370771 Li
0.021807 0.594306 0.370771 Li
0.501036 0.032851 0.329229 Li
0.001036 0.032851 0.329229 Li
0.478193 0.405694 0.629229 Li
0.978193 0.405694 0.629229 Li
0.498964 0.967149 0.670771 Li
0.998964 0.967149 0.670771 Li
0.428111 0.711695 0.511330 Li
0.928111 0.711695 0.511330 Li
0.466780 0.843414 0.588670 Li
0.966780 0.843414 0.588670 Li
0.671889 0.088305 0.688670 Li
0.171889 0.088305 0.688670 Li
0.133220 0.956586 0.611330 Li
0.633220 0.956586 0.611330 Li
0.621807 0.394306 0.570771 Li
0.121807 0.394306 0.570771 Li
0.101036 0.832851 0.529229 Li
0.601036 0.832851 0.529229 Li
0.552957 0.722043 0.450000 Se
0.052957 0.722043 0.450000 Se
0.347043 0.477957 0.350000 Se
0.847043 0.477957 0.350000 Se
0.652957 0.522043 0.650000 Se
0.152957 0.522043 0.650000 Se
0.447043 0.277957 0.550000 Se
0.947043 0.277957 0.550000 Se
0.043895 0.917706 0.432023 O
0.543895 0.917706 0.432023 O
0.561873 0.526526 0.467977 O
0.061873 0.526526 0.467977 O
0.546614 0.778386 0.350000 O
0.046614 0.778386 0.350000 O
0.353386 0.421614 0.450000 O
0.853386 0.421614 0.450000 O
0.514581 0.381684 0.385304 O
0.014581 0.381684 0.385304 O
0.479276 0.274459 0.314696 O
0.979276 0.274459 0.314696 O
0.385419 0.818316 0.414696 O
0.885419 0.818316 0.414696 O
0.420724 0.925541 0.485304 O
0.920724 0.925541 0.485304 O
0.838127 0.673474 0.332023 O
0.856105 0.282294 0.367977 O
0.356105 0.282294 0.367977 O
0.143895 0.717706 0.632023 O
0.643895 0.717706 0.632023 O
0.661873 0.326526 0.667977 O
0.646614 0.578386 0.550000 O
0.146614 0.578386 0.550000 O
0.453386 0.221614 0.650000 O
0.953386 0.221614 0.650000 O
0.614581 0.181684 0.585304 O
0.114581 0.181684 0.585304 O
0.579276 0.074459 0.514696 O
0.079276 0.074459 0.514696 O
0.485419 0.618316 0.614696 O
0.985419 0.618316 0.614696 O
0.520724 0.725541 0.685304 O
0.020724 0.725541 0.685304 O
0.438127 0.473474 0.532023 O
0.938127 0.473474 0.532023 O
0.956105 0.082294 0.567977 O
0.456105 0.082294 0.567977 O
0.064613 0.326526 0.682334 O
0.161873 0.326526 0.667977 O
