Sr Cu Bi  H  C  O 
 1.0000000000000000
     8.9253210000000003    0.0000000000000000    0.0000000000000000
     0.0000000000000000   20.2735689999999984    2.3409900000000001
     0.0000000000000000    0.0000000000000000   32.7738609999999966
 Sr  Cu  Bi  H   C   O  
  18  20  20   9   4   1
Selective dynamics
Cartesian
  4.4626605000000001  8.1094276000000001 16.2308753912869967   F   F   F
  4.4626605000000001  4.0547138000000000 13.8898806521639973   F   F   F
  4.4626605000000001  0.0000000000000000 16.2308613739179997   F   F   F
  4.4626605000000001 16.2188552000000001 16.2308566347949998   F   F   F
  4.4626605000000001 12.1641413999999983 13.8898618956719986   F   F   F
  0.0000000000000000  8.1094276000000001 16.2308753912869967   F   F   F
  0.0000000000000000  4.0547138000000000 13.8898806521639973   F   F   F
  0.0000000000000000  0.0000000000000000 16.2308613739179997   F   F   F
  0.0000000000000000 16.2188552000000001 16.2308566347949998   F   F   F
  0.0000000000000000 12.1641413999999983 13.8898618956719986   F   F   F
  4.4626605000000001  8.1094276000000001 20.9128508521639951   T   T   T
  4.4626605000000001  4.0547138000000000 18.5718561130410009   F   F   F
  4.4626605000000001 16.2188552000000001 20.9128320956719982   T   T   T
  4.4626605000000001 12.1641413999999983 18.5718701304099980   F   F   F
  0.0000000000000000  8.1094276000000001 20.9128508521639951   T   T   T
  0.0000000000000000  4.0547138000000000 18.5718561130410009   F   F   F
  0.0000000000000000 16.2188552000000001 20.9128320956719982   T   T   T
  0.0000000000000000 12.1641413999999983 18.5718701304099980   F   F   F
  2.2313302500000001  6.7578495754769996 13.8898736196699986   F   F   F
  2.2313302500000001  2.7031357754770000 16.2308543414239956   F   F   F
  2.2313302500000001 18.9219909754769979 16.2308496023009994   F   F   F
  2.2313302500000001 14.8672771754769997 13.8898876370389992   F   F   F
  2.2313302500000001 10.8125633754769979 16.2308683587929998   F   F   F
  6.6939907500000002  9.4610056245229988 13.8898689281659991   F   F   F
  6.6939907500000002  5.4062918245229996 16.2308496499199997   F   F   F
  6.6939907500000002  1.3515780245230000 13.8898876846579977   F   F   F
  6.6939907500000002 17.5704332245229971 13.8898829455349997   F   F   F
  6.6939907500000002 13.5157194245229988 16.2308636672890003   F   F   F
  2.2313302500000001  6.7578495754769996 18.5718490805470005   F   F   F
  2.2313302500000001  2.7031357754770000 20.9128298023009975   T   T   T
  2.2313302500000001 18.9219909754769979 20.9128578370389988   T   T   T
  2.2313302500000001 14.8672771754769997 18.5718630979159975   F   F   F
  2.2313302500000001 10.8125633754769979 20.9128438196699946   T   T   T
  6.6939907500000002  9.4610056245229988 18.5718443890429938   F   F   F
  6.6939907500000002  5.4062918245229996 20.9128578846580027   T   T   T
  6.6939907500000002  1.3515780245230000 18.5718631455349978   T   T   T
  6.6939907500000002 17.5704332245229971 18.5718584064120016   F   F   F
  6.6939907500000002 13.5157194245229988 20.9128391281659987   T   T   T
  6.6939907500000002  6.7578495754769996 13.8898736196699986   F   F   F
  6.6939907500000002  2.7031357754770000 16.2308543414239956   F   F   F
  6.6939907500000002 18.9219909754769979 16.2308496023009994   F   F   F
  6.6939907500000002 14.8672771754769997 13.8898876370389992   F   F   F
  6.6939907500000002 10.8125633754769979 16.2308683587929998   F   F   F
  2.2313302500000001  9.4610056245229988 13.8898689281659991   F   F   F
  2.2313302500000001  5.4062918245229996 16.2308496499199997   F   F   F
  2.2313302500000001  1.3515780245230000 13.8898876846579977   F   F   F
  2.2313302500000001 17.5704332245229971 13.8898829455349997   F   F   F
  2.2313302500000001 13.5157194245229988 16.2308636672890003   F   F   F
  6.6939907500000002  6.7578495754769996 18.5718490805470005   F   F   F
  6.6939907500000002  2.7031357754770000 20.9128298023009975   T   T   T
  6.6939907500000002 18.9219909754769979 20.9128578370389988   T   T   T
  6.6939907500000002 14.8672771754769997 18.5718630979159975   F   F   F
  6.6939907500000002 10.8125633754769979 20.9128438196699946   T   T   T
  2.2313302500000001  9.4610056245229988 18.5718443890429938   F   F   F
  2.2313302500000001  5.4062918245229996 20.9128578846580027   T   T   T
  2.2313302500000001  1.3515780245230000 18.5718631455349978   T   T   T
  2.2313302500000001 17.5704332245229971 18.5718584064120016   F   F   F
  2.2313302500000001 13.5157194245229988 20.9128391281659987   T   T   T
  6.8170887772320006  9.3658009444990000 23.8648416687989986   T   T   T
  7.9848867021930001  7.8618670489409990 25.5004305712629957   T   T   T
  7.8599946854400002  6.5200203375379990 24.3548319696859963   T   T   T
  5.2986863927490004  6.7332577362799997 24.3196749800419987   T   T   T
  5.4212935273260001  8.0530468046109984 25.5080200604009981   T   T   T
  4.5734951361780007  8.2939373514689994 23.9650500935729980   T   T   T
  9.3844930641660014  9.1128476240859992 23.8141007098919992   T   T   T
  9.2881888505760006  7.7157959842959993 22.7229558785609953   T   T   T
 10.1002948830450006  7.5628521797599992 24.2864048262239969   T   T   T
  6.7303882090380007  8.2761979785939985 23.7865472596989953   T   T   T
  7.9464899712510002  7.6107180761689994 24.4341704603539966   T   T   T
  5.4353866091850005  7.8135348604449995 24.4404817688719973   T   T   T
  9.2530944884040007  8.0270560891529996 23.7715766290699975   T   T   T
  6.6939907500000002  7.9373658198969990 22.4029401940259980   T   T   T
