Zr  H  C  O 
 1.0000000000000000
    10.9603059999999992    0.0000000000000000    0.0000000000000000
     0.0000000000000000   11.6360440000000001    0.0000000000000000
     0.0000000000000000    0.0000000000000000   30.2313280000000013
 Zr  H   C   O  
  48  35  30   1
Selective dynamics
Cartesian
  1.2788704246919997  2.9090110000000000 10.9168650854080003   F   F   F
  1.2788704246919997  8.7270330000000005 10.9168650854080003   F   F   F
  6.7590234246919989  2.9090110000000000 10.9168650854080003   F   F   F
  6.7590234246919989  8.7270330000000005 10.9168650854080003   F   F   F
  1.2788704246919997  0.0000000000000000 12.5963967437760012   F   F   F
  1.2788704246919997  5.8180220000000000 12.5963967437760012   F   F   F
  6.7590234246919989  0.0000000000000000 12.5963967437760012   F   F   F
  6.7590234246919989  5.8180220000000000 12.5963967437760012   F   F   F
  4.2002961477679994  1.9393445453480000 12.5963967437760012   F   F   F
  4.2002961477679994  7.7573665453479999 12.5963967437760012   F   F   F
  9.6804491477679999  1.9393445453480000 12.5963967437760012   F   F   F
  9.6804491477679999  7.7573665453479999 12.5963967437760012   F   F   F
  4.2002961477679994  4.8483555453480003 10.9168650854080003   F   F   F
  4.2002961477679994 10.6663775453480003 10.9168650854080003   F   F   F
  9.6804491477679999  4.8483555453480003 10.9168650854080003   F   F   F
  9.6804491477679999 10.6663775453480003 10.9168650854080003   F   F   F
  1.2788704246919997  2.9090110000000000 14.2758981708159993   F   F   F
  1.2788704246919997  8.7270330000000005 14.2758981708159993   F   F   F
  6.7590234246919989  2.9090110000000000 14.2758981708159993   F   F   F
  6.7590234246919989  8.7270330000000005 14.2758981708159993   F   F   F
  1.2788704246919997  0.0000000000000000 15.9554298291840002   F   F   F
  1.2788704246919997  5.8180220000000000 15.9554298291840002   F   F   F
  6.7590234246919989  0.0000000000000000 15.9554298291840002   F   F   F
  6.7590234246919989  5.8180220000000000 15.9554298291840002   F   F   F
  4.2002961477679994  1.9393445453480000 15.9554298291840002   F   F   F
  4.2002961477679994  7.7573665453479999 15.9554298291840002   F   F   F
  9.6804491477679999  1.9393445453480000 15.9554298291840002   F   F   F
  9.6804491477679999  7.7573665453479999 15.9554298291840002   F   F   F
  4.2002961477679994  4.8483555453480003 14.2758981708159993   F   F   F
  4.2002961477679994 10.6663775453480003 14.2758981708159993   F   F   F
  9.6804491477679999  4.8483555453480003 14.2758981708159993   F   F   F
  9.6804491477679999 10.6663775453480003 14.2758981708159993   F   F   F
  1.2788704246919997  2.9090110000000000 17.6349312562240002   T   T   T
  1.2788704246919997  8.7270330000000005 17.6349312562240002   T   T   T
  6.7590234246919989  2.9090110000000000 17.6349312562240002   T   T   T
  6.7590234246919989  8.7270330000000005 17.6349312562240002   T   T   T
  1.2788704246919997  0.0000000000000000 19.3144629145920028   T   T   T
  1.2788704246919997  5.8180220000000000 19.3144629145920028   T   T   T
  6.7590234246919989  0.0000000000000000 19.3144629145920028   T   T   T
  6.7590234246919989  5.8180220000000000 19.3144629145920028   T   T   T
  4.2002961477679994  1.9393445453480000 19.3144629145920028   T   T   T
  4.2002961477679994  7.7573665453479999 19.3144629145920028   T   T   T
  9.6804491477679999  1.9393445453480000 19.3144629145920028   T   T   T
  9.6804491477679999  7.7573665453479999 19.3144629145920028   T   T   T
  4.2002961477679994  4.8483555453480003 17.6349312562240002   T   T   T
  4.2002961477679994 10.6663775453480003 17.6349312562240002   T   T   T
  9.6804491477679999  4.8483555453480003 17.6349312562240002   T   T   T
  9.6804491477679999 10.6663775453480003 17.6349312562240002   T   T   T
  3.3523520740779995  2.9090110000000000 10.9168650854080003   F   F   F
  3.3523520740779995  8.7270330000000005 10.9168650854080003   F   F   F
  8.8325050740780000  2.9090110000000000 10.9168650854080003   F   F   F
  8.8325050740780000  8.7270330000000005 10.9168650854080003   F   F   F
  3.3523520740779995  0.0000000000000000 12.5963967437760012   F   F   F
  3.3523520740779995  5.8180220000000000 12.5963967437760012   F   F   F
  8.8325050740780000  0.0000000000000000 12.5963967437760012   F   F   F
  8.8325050740780000  5.8180220000000000 12.5963967437760012   F   F   F
  3.3523520740779995  2.9090110000000000 14.2758981708159993   F   F   F
  3.3523520740779995  8.7270330000000005 14.2758981708159993   F   F   F
  8.8325050740780000  2.9090110000000000 14.2758981708159993   F   F   F
  8.8325050740780000  8.7270330000000005 14.2758981708159993   F   F   F
  3.3523520740779995  0.0000000000000000 15.9554298291840002   F   F   F
  3.3523520740779995  5.8180220000000000 15.9554298291840002   F   F   F
  8.8325050740780000  0.0000000000000000 15.9554298291840002   F   F   F
  8.8325050740780000  5.8180220000000000 15.9554298291840002   F   F   F
  3.3523520740779995  2.9090110000000000 17.6349312562240002   T   T   T
  3.3523520740779995  8.7270330000000005 17.6349312562240002   T   T   T
  8.8325050740780000  2.9090110000000000 17.6349312562240002   T   T   T
  8.8325050740780000  8.7270330000000005 17.6349312562240002   T   T   T
  3.3523520740779995  0.0000000000000000 19.3144629145920028   T   T   T
  3.3523520740779995  5.8180220000000000 19.3144629145920028   T   T   T
  8.8325050740780000  0.0000000000000000 19.3144629145920028   T   T   T
  8.8325050740780000  5.8180220000000000 19.3144629145920028   T   T   T
 11.3761619302519978  8.7323274000199991 21.5884331754240009   T   T   T
  8.6976604293599991 10.0745334393760011 22.1972316586880005   T   T   T
 10.2042531318139993 10.8766292243840006 21.8160146126080043   T   T   T
 10.2045600203819991  6.5761335386879995 21.8182214995520027   T   T   T
  8.6976604293599991  7.3792300234799999 22.1969293454080017   T   T   T
  9.7292553903859993 10.8736387610760001 24.2769051744640016   T   T   T
 11.2469618431239997 10.0654340529679995 23.8917278244160016   T   T   T
 11.2469618431239997  7.3883294098879997 23.8914255111359992   T   T   T
  9.7293540331399999  6.5800316134279999 24.2766330925120002   T   T   T
 10.0098611445979984  8.7268351872520000 25.5319285250559993   T   T   T
  8.5701591896620002  8.7269282756039992 24.5159140536320024   T   T   T
  0.0244086014620000  3.8786774546519998 12.5963967437760012   F   F   F
  0.0244086014620000  9.6966994546520002 12.5963967437760012   F   F   F
  5.5045616014619991  3.8786774546519998 12.5963967437760012   F   F   F
  5.5045616014619991  9.6966994546520002 12.5963967437760012   F   F   F
  0.0244086014620000  0.9696664546520001 10.9168650854080003   F   F   F
  0.0244086014620000  6.7876884546519998 10.9168650854080003   F   F   F
  5.5045616014619991  0.9696664546520001 10.9168650854080003   F   F   F
  5.5045616014619991  6.7876884546519998 10.9168650854080003   F   F   F
  0.0244086014620000  3.8786774546519998 15.9554298291840002   F   F   F
  0.0244086014620000  9.6966994546520002 15.9554298291840002   F   F   F
  5.5045616014619991  3.8786774546519998 15.9554298291840002   F   F   F
  5.5045616014619991  9.6966994546520002 15.9554298291840002   F   F   F
  0.0244086014620000  0.9696664546520001 14.2758981708159993   F   F   F
  0.0244086014620000  6.7876884546519998 14.2758981708159993   F   F   F
  5.5045616014619991  0.9696664546520001 14.2758981708159993   F   F   F
  5.5045616014619991  6.7876884546519998 14.2758981708159993   F   F   F
  0.0244086014620000  3.8786774546519998 19.3144629145920028   T   T   T
  0.0244086014620000  9.6966994546520002 19.3144629145920028   T   T   T
  5.5045616014619991  3.8786774546519998 19.3144629145920028   T   T   T
  5.5045616014619991  9.6966994546520002 19.3144629145920028   T   T   T
  0.0244086014620000  0.9696664546520001 17.6349312562240002   T   T   T
  0.0244086014620000  6.7876884546519998 17.6349312562240002   T   T   T
  5.5045616014619991  0.9696664546520001 17.6349312562240002   T   T   T
  5.5045616014619991  6.7876884546519998 17.6349312562240002   T   T   T
 10.2794517912799996  8.7269282756039992 21.6062091962880025   T   T   T
  9.7864572273999997  9.9909284632360009 22.3096317361919994   T   T   T
  9.7864572273999997  7.4630328123680005 22.3093294229120005   T   T   T
 10.1573539824400001  9.9908353748840000 23.7889110778880024   T   T   T
 10.1573539824400001  7.4628349996200001 23.7887296899200003   T   T   T
  9.6668583683279987  8.7268351872520000 24.4912150586560031   T   T   T
  9.8325562744359996  8.7270330000000005 20.2546269840640001   T   T   T
