 O Si Au 
 1.0000000000000000
    13.7065166200000004   -0.0000588000000000    0.0000243500000000
    -6.8533092299999998   11.8701637400000006   -0.0000225700000000
     0.0000263400000000   -0.0000129700000000   14.8090446000000000
 O   Si  Au 
  72  36   8
Cartesian
 11.1526403845382944  1.1283278430855481  2.0277830945635671
  4.5511908819831755  5.1880621556657918  6.5884528547287440
 -2.5494904919234873  9.0963498224072783 11.6898773821782722
  6.4274708626455102  9.6274031796113153  1.9555422140540395
  6.3301071989965223  1.8234561544111607  6.4612803673469879
 -0.5885149409589415  5.8460626578729542 11.8158067955562665
  1.4914811579667777  1.2342090626593789  2.0752227547996918
  8.2525303643572343  5.2446337814150716  6.4958461333138784
  1.1657765177136405  8.9321249331442640 11.8314673299640383
 -5.4246864794835172 10.8297755187705462 12.8222828551807311
  8.3160818587847913  2.7353798048203775  3.2547864062411898
  1.4293381628509478  6.9001673049308749  8.3929666935598028
 -0.5771861193028229  2.2185777939114546 13.4559633653510673
  6.2710417117337274  6.3859296795319604  3.1343457615644170
 -0.4789422942771093 10.3227243846909591  8.3242153884074472
  4.4559313661980342 10.7281293010576899 13.2189148489150305
  4.2674448644677057  2.8274649183952358  3.2368166505447418
 -2.4221558408826755  6.8533440956929095  8.6005095409051648
 10.6610627840512144  3.7276645614428379  2.4235835013535927
  3.9655642221942466  7.6507949678145044  7.6103772503035350
 -2.8885672417329600 11.5973545887148077 12.5545886243140501
  4.4055522452797442  7.9868405799274331  2.6405975765075622
  4.3199424170089600  0.0685075461348959  7.4198127003933214
 11.2454682346846546  3.9966296238121322 12.5214564230249277
  4.0249165255424719  0.3311781828381322  2.3650967311375064
 10.6721578672297497  4.5019735449790854  7.4509703357342056
  3.6352228129345936  8.2818153772632659 12.5801553834679218
  8.6922738797370585  0.1221102476179047  2.5111333443407262
  2.0059404687385838  4.4692125525793278  7.4955722506175073
  8.7976735775213903  8.2130179836850665 12.3602092815674354
  1.8154912683864346  3.7320501644475836  2.5796360095634578
  9.0183516727441013  7.7073656145249263  7.3017140041305773
  1.9107844552543547 11.4157344735470367 12.5578381208435435
  8.4030514517042221  7.8869521599387458  2.3655492719368567
  8.1190004556395028  0.2952806024837288  7.7002911526780435
  1.2017189838215661  4.0735928079106953 12.5616591373516684
 -0.5686856853842484  3.0235113625405181  1.8316109656254520
  6.4510388419081508  7.0609997328568648  6.7669018000290038
 -0.5157448312953085 10.8895370343579625 11.6610454745576337
  3.8922376972794304 10.4537992273550913  1.8759656203789550
  3.9475309837238481  2.6459741937164165  7.0298771229194195
 -3.0426829047519375  6.4666994452331430 11.5847699858038098
 -4.8724014328581582 10.4776039673337014  2.2310492972470199
  8.8811256669023066  2.6613573321852098  6.8100771502737247
  2.0297410249262748  6.4543191015052255 11.7123373059490774
  6.3348515263828418  8.9396787443942003 12.9252438109372836
  6.2634954901104551  1.1086490300191643  3.1046262476173658
 -0.5185523634750059  5.2376310380003179  7.8016885560641374
  1.9549359295573587  1.5052642729887262 12.8386128874571881
  8.7005368023696672  5.3074648605831047  3.1211275818576492
  2.0029297438940867  9.5110748916997778  7.9310277864724004
 10.7662215051055341  1.3807435689948340 12.6739368206907717
  3.8704033181518049  5.4353996057503515  3.0843871271132586
 -2.8634936987246085  9.3909441662208373  7.8918377723361246
 11.0324337145741431  2.9899571135667737  0.0223060740407213
  4.4427462557545656  7.3360420909872568  5.0050640301592146
 -2.5850448160482076 11.0460992968847886  9.9401123545133974
  4.6892713227329610  8.7502174106218913  0.0940891922770063
  4.4031988650417002  0.8165929380889945  5.0141366547586443
 -2.0696035627549421  4.5807698319778982 10.0017898654451898
 -3.9691248519311557 11.8155058072761072  0.1034597641952437
 10.1067777413514825  4.0489502700979303  4.8819107394389691
  3.0448278483656073  8.2577322372613242  9.9857981128449893
  9.6241746141158018  0.2302967314107763  0.0447681996828617
  2.7876123695662218  3.9827092128172796  5.0991321142863626
 -4.2638666336740485  8.2091839881098121  9.8614907866987824
  1.4726557756760488  3.0642780205910940  0.1145658116836839
  8.1386594877686509  7.2529751379067413  4.7809815387068788
  1.5701513482120022 10.9702251848227892 10.0250249424375522
  8.1794839186110710  9.0662862429124509 14.8084453534476950
  8.2619124762326202  0.6995935148800674  4.9748054585991399
  1.0966552543600911  4.6743785186074707  9.9705181138464773
 11.5529254434737449  2.6716366190281056  1.5976820390434696
  4.8865818349585854  6.7768349099037843  6.5454605142228637
 -2.1333708459637939 10.6713418553478832 11.4884219039578568
  4.8573002364142246  9.1657163148660903  1.6587459905624828
  4.7436679013655176  1.3146852143421890  6.5157546940968238
 -2.0746958521469208  5.2079579610421005 11.4895266603302666
  2.5719045805912635  0.0268824735876863  1.6983257724388892
  9.4298300680951446  4.1298855786145596  6.4534934082896793
  2.5015372632281276  8.0176047283095002 11.4646424722129989
 10.0509820845550326  0.0126400029615813  1.6251258207939574
  3.2670229726803695  4.0770236930449650  6.5780779586806775
 -3.6678114338864565  7.9580352216030228 11.4022962972232147
  0.9733426327742084  2.6992691028667330  1.6475027633881767
  8.0214735212580113  6.8311020887079348  6.3573498522550018
  1.0546812614988226 10.5333402190974788 11.5136115054333192
  7.9614577343709527  9.2590778804120948  1.6433386140643054
  7.9045956746594364  1.3979225499570098  6.4419011633575538
  0.9154488014806045  5.2533461135866926 11.5220363046375489
  7.9204436613913396  9.2588023957489902 13.2048905725719532
  7.9049688194760348  1.1660221554580259  3.4466631021936851
  0.9692234667993198  5.3017350011756070  8.4936727776554228
  1.0233407062362019  2.7098734459023612 13.4196077969090890
  7.8461373932758347  6.6561741666695875  3.2943961840716636
  1.0831208269004728 10.7411376633475300  8.4601547563136688
 10.1083194486746084  0.0273799284322408 13.3297319788973780
  3.1573275900329687  4.0071205376240009  3.5165005196520882
 -3.5684730336670514  8.0157999684229164  8.4261330961953984
  2.5438596682590608  0.0558499376703360 13.2840545303204589
  9.4088066949162510  3.9115255574519505  3.4362123305507022
  2.5754791747177932  8.0502202780447654  8.4127854822467949
  4.7845486851096739  9.1537564748184685 13.3627933437790904
  4.7636538762499328  1.2642823311210463  3.4789275284324299
 -1.9903289669319066  5.2997489943978833  8.5048926293965490
 11.5774035200617398  2.6392196777772585 13.3595935552326157
  4.7549431818397609  6.7083643985423436  3.5484965255413976
 -2.0894936565186910 10.7381601472421941  8.4273198402661045
  6.7362896649506689  3.6195287628336357  8.4363733454326812
  7.0631041767965401  2.2373822667720615 12.4408084735572366
  6.2728883815647336  1.1966354966799415  9.6478295740959616
  7.6113526916310681  4.7041362321574987 11.9444430617039519
  8.5773438409575533  2.7738116457882414 10.2132361303303565
  5.3648443658779543  3.3878489295365544 10.7892039807685141
  8.8675621998357794  5.3911799251949599  9.6302853466698224
  6.1818012256607053  5.8626016332465607  9.8702234114688352
