Zn12 Co18 O44
1.0
5.799098 0.000000 0.362393
4.098528 11.612391 0.032928
0.000000 0.000000 34.843027
Zn Co O
12 18 44
direct
0.091756 0.594926 0.367865 Zn
0.950979 0.883707 0.371451 Zn
0.869534 0.206037 0.423420 Zn
0.728756 0.494818 0.427007 Zn
0.647312 0.817148 0.478976 Zn
0.506534 0.105929 0.482562 Zn
0.425090 0.428259 0.534532 Zn
0.284312 0.717040 0.538118 Zn
0.202868 0.039370 0.590087 Zn
0.062090 0.328151 0.593674 Zn
0.980645 0.650481 0.645643 Zn
0.839868 0.939262 0.649229 Zn
0.578326 0.338994 0.355419 Co
0.521368 0.739316 0.369658 Co
0.464409 0.139639 0.383898 Co
0.356104 0.950105 0.410974 Co
0.299145 0.350427 0.425214 Co
0.242187 0.750750 0.439453 Co
0.133882 0.561216 0.466530 Co
0.076923 0.961538 0.480769 Co
0.019965 0.361861 0.495009 Co
0.911659 0.172327 0.522085 Co
0.854701 0.572650 0.536325 Co
0.797742 0.972972 0.550564 Co
0.689437 0.783438 0.577641 Co
0.632479 0.183761 0.591880 Co
0.575520 0.584083 0.606120 Co
0.467215 0.394549 0.633196 Co
0.410256 0.794872 0.647436 Co
0.353298 0.195195 0.661676 Co
0.329094 0.892330 0.362091 O
0.743839 0.179993 0.365953 O
0.298896 0.298639 0.373363 O
0.713641 0.586302 0.377225 O
0.229083 0.717310 0.387094 O
0.624544 0.989497 0.395633 O
0.195968 0.100247 0.399239 O
0.591430 0.372433 0.407778 O
0.106872 0.503442 0.417647 O
0.521617 0.791105 0.421509 O
0.076674 0.909750 0.428919 O
0.491419 0.197413 0.432781 O
0.006860 0.328421 0.442649 O
0.402322 0.600608 0.451188 O
0.973746 0.711358 0.454794 O
0.369208 0.983545 0.463334 O
0.884650 0.114553 0.473202 O
0.299395 0.402216 0.477064 O
0.854452 0.520861 0.484474 O
0.269196 0.808524 0.488336 O
0.784638 0.939532 0.498205 O
0.180100 0.211719 0.506744 O
0.751524 0.322469 0.510350 O
0.146986 0.594656 0.518889 O
0.662428 0.725664 0.528758 O
0.077172 0.013327 0.532620 O
0.632229 0.131972 0.540030 O
0.046974 0.419635 0.543892 O
0.562416 0.550644 0.553761 O
0.957878 0.822830 0.562300 O
0.529302 0.933580 0.565906 O
0.924764 0.205767 0.574445 O
0.440205 0.336775 0.584313 O
0.854950 0.624438 0.588175 O
0.410007 0.743083 0.595585 O
0.824752 0.030747 0.599448 O
0.340194 0.161755 0.609316 O
0.735656 0.433941 0.617855 O
0.307080 0.544691 0.621461 O
0.702541 0.816878 0.630000 O
0.217983 0.947886 0.639869 O
0.632728 0.235549 0.643731 O
0.187785 0.354195 0.651141 O
0.602530 0.641858 0.655003 O
