 O Si Au 
 1.0000000000000000
    13.7029250099999995    0.0000001400000000    0.0000007200000000
     0.0000001300000000   12.6471261899999998   -0.0000012000000000
     0.0000009800000000   -0.0000017600000000   18.5380665200000010
 O   Si  Au 
  96  48   8
Cartesian
 13.5038644321461767  0.1152795293012263  3.1823149005558538
  6.6832309546142268  6.1773465489895107  2.9447093438324790
 13.4609722848284701 12.5609250006964448 12.3300996802484395
  6.5729331873367798  6.2450429319413052 12.4249145272402988
 13.3655591560158040  0.0369373342544914 15.9754360892193361
  6.6759972038208195  6.0875117258131555 16.3637918998656531
 13.5828152393353143 12.2682353757857037  6.6551670987453031
  6.6107687281624301  6.2306162446925919  6.9312641843743901
  1.8090959225805019  0.5263616754642518  5.0464030376619666
  8.4395152300890164  6.5476262824292411  4.9375324576719786
 11.5927366316215927  0.3626325812182571  5.0930939123627033
  4.8870727598840187  6.4828974872300078  5.0242889454240744
  1.6894834129116971 11.9976571233484890 14.1052430041325589
  8.3387067204956296  5.7828463420611005 14.2412794267825067
 11.6383128845442911 11.9197549690290607 14.1654351532158778
  4.8268419040270025  5.8852907982103506 14.3727046697493552
  1.8314030840946283  1.8703649054009543  2.8145865449014202
  8.4918546873007728  8.1989300120174757  2.7602371324897552
 11.5692118915793998  1.8618164355079114  2.7869553277006287
  4.9931942830567353  8.1034908259738856  2.9230731094570701
  1.4894394930231849 10.4199638624950719 12.0516435916828719
  8.4818270647704868  4.3356632182390484 12.0625844055810383
 11.7279748311175194 10.5058236668235043 12.0079754812491348
  4.8215355941676954  4.3180720184874630 12.2900435104159431
 11.7537895959224361 10.5938853119668224 16.4450264734855196
  4.7585042736898506  4.2350216180839242 16.3951342839493925
  1.3061658372467284 10.5536260021688282 16.2940871369379607
  8.6263166986440414  4.3454156250141605 16.5502977227144328
 12.1091860267743918  1.6765577493307802  7.2685463022685557
  4.8336679254738186  8.1486998631316840  7.0336915464255974
  1.3388619533521415  1.9031517803661357  7.1882684715995619
  8.6985044740780619  7.9884570217020325  7.0121069669495357
  2.2825136116484885 11.8971235519396146  2.6820753323676283
  9.2663594592928717  5.5573101140365084  2.6330225376661742
 10.9857003336432193 11.9457839653776805  2.6755631768975587
  4.1596608011620981  5.4708617608560077  2.7191401240407100
  2.2872779364088665  0.3531081794679486 11.8473059698530836
  9.1699655035261216  6.8057929320929400 11.9142787483010846
 10.9274125683052361  0.3793239882782276 11.8626679901705909
  4.1383501088464163  6.9964797886189176 12.0272499993441553
 10.7899201234057660  0.4690601065179174 16.3496738722801354
  4.2039562555348846  6.9057015703056326 16.6137841930695629
  2.2254020795237559  0.4272588454373006 16.5452368659951574
  9.0210248185625783  7.0578490900092516 16.4768800689662278
 11.0416803136259105 11.7421539182865882  7.3045552999563395
  4.0051820805317746  5.6017164564683819  7.3332288964868360
  2.4452447217175788 11.9576306381508353  7.2619354421333577
  9.0782099107037606  5.3756621577203685  7.2960670348217187
  1.7102050594042906 10.5532140798588152  0.4091008481139736
  8.5831352002451240  3.9963928695695756  0.7074432780105395
 11.6447177168263849 10.4121485050632394  0.5163798767796476
  4.7224404815269097  4.0656037477288898  0.4397626570735340
  1.6669742490715298  1.8329737636889405  9.8746291693255479
  8.7093684301731180  7.9450119938391754  9.6710795059930170
 11.4143360565160332  1.9700287411712329  9.9281937432656537
  4.7713116701830689  7.9992330918035224  9.6775768862442124
 11.6042313521568676  1.7853197944697135  0.0463571002316040
  4.9342928018938998  8.0783154596631963  0.2200183498805492
  1.8854085022803282  1.8951588347661146  0.1846247874752252
  8.4774157738940126  8.5209224367506984  0.0242930315926008
 11.6442770867026226 10.5133097540854106  9.3312770279648536
  4.6775744294113188  4.0714978444389391  9.4435749479264253
  1.7376076886817393 10.7743049721511035  9.4279571340878636
  8.6236351998192244  3.9068955451480702  9.3618825462473634
 13.5292968308582662  8.9939604990084714 17.8399361397655625
  6.6737381806216103  2.8636833704955813 17.7665510149426744
 13.4343002220207204  3.3056952746965029  8.8618574416231848
  6.7020777289925189  9.2879068458236720  8.3824732429097146
 13.4718652975101332  2.9413337937988291  1.4192736892633033
  6.6316920276221731  9.6367779555664637  1.6371891495591169
 13.5264903543980211  9.1506544189900030 10.4041407904239680
  6.5881091973285697  2.8501330069841542 10.8815318296483934
  2.4651855950993893  8.5070677982974203 17.6546952725796373
  9.0475243625359170  1.9513212475075752 17.5722074058752078
 11.0481292793636552  8.3041571504296741 17.5496086343673348
  4.3024423190173291  1.8711823209502789 17.3990556906776135
  2.2186938308611763  4.0298551040574244  8.4141602525790749
  9.1454303971164439 10.2370914058947182  8.2921882627613677
 10.9787619186326477  3.8708028245682362  7.9929688121556692
  4.1607388819733657 10.2770294586918265  8.3251371857299610
 11.1586402783561667  4.0969783367267478  1.3666437018360862
  4.0826802181891964 10.1971253113229228  1.4824887973480880
  2.2469247858285994  4.0528986874111297  1.6138670782569216
  9.0805421784116085 10.5930698102297480  1.6624397025205215
 11.1436676268619674  8.1936613793586872 10.6839956719658478
  3.9901605533990705  2.1234431199380368 11.1757822282103376
  2.3660410064995290  8.4022612073505165 10.8010076522206671
  9.0132291629741292  1.9649491383266176 11.1186461469765447
  9.9187257896143421 12.4628246336668536  0.2115344350016956
  3.0320250598491874  6.2319069665473279  0.3473497303437997
  3.5107927187852299 12.5279609209447180  0.3674084583687244
 10.1081563344247716  6.2549943752269028  0.2680963433524504
  9.8507978662511135 12.5242327596243932  9.4791228287012466
  3.0991504371978182  6.0131101444879951  9.9039529177156851
  3.6787248872064375  0.0714435082649648  9.5217693957047214
 10.3692496210105141  5.9109074220761704  9.6802713303533601
  1.3667958397482813  0.4189024768404413  3.4782648262199443
  8.2233156016289346  6.6157143875614910  3.3208677008661711
 11.8893988436831339  0.3953154412176272  3.4766141957676990
  5.2118465256117945  6.5742557998569033  3.4533049768308879
  1.2657688825372411 11.9772793323197408 12.5430273268963326
  8.1042949444077426  5.8409099571383969 12.6060439764538490
 11.9457438176825157 12.0532824679393311 12.5936453299586635
  5.0227747383661026  5.8541195772576593 12.8036469965044990
 11.8889005514353876 12.0735971210694650 15.7389742304836240
  5.1252281130120414  5.7862364594728133 15.9779019712431047
  1.1919352229683067 12.0555953504132809 15.6851621121638090
  8.1826970860936630  5.8144748799590307 15.8476837055121997
 12.0814189189119556  0.1654094858359480  6.6404076035064694
  5.1016279009804215  6.6225242676073828  6.6131780973679026
  1.3911130779734828  0.2937653156776180  6.6149433268300726
  8.1958060545516549  6.4888609989917025  6.5823987792635208
  1.3121158464398155  9.6222927655474511 17.6503488564815392
  8.2206918098460058  3.3636465449469535 17.7516609029967647
 12.0078372234716273  9.5825406743761157 17.7172282779251518
  5.1082362737923281  3.2367380503513759 17.6436329495635391
  1.2097680106872100  2.7967086780958912  8.5390151214869761
  8.2751907804904832  8.8544731547388800  8.3658217338212797
 11.9416181037693345  2.6568022314262918  8.5318592634516257
  5.1302236941063830  8.9719460783139819  8.3908952192990345
 11.8603544478427860  2.6276893501150389  1.3953660168609150
  5.1495884422057028  8.9832316340657279  1.5304853204702813
  1.3776401170804444  2.6680242050135643  1.5183321650754908
  8.2159924157589330  9.2018960518433506  1.5187110078922010
 11.9648391276490020  9.5951004454836379 10.6669160906938423
  5.0159782387505167  3.3853481079439964 10.9594390330944460
  1.3668682525167468  9.6822753389873188 10.6134107725969500
  8.1546138839785272  3.3362946289604016 10.8330019883901159
 10.4761024483301828 11.3030338704009310  1.2650091448275094
  3.5222381958087938  4.9519958303423701  1.3085597494453125
  2.8873045985834591 11.3201624231953932  1.3179660683264438
  9.7555498279371839  4.9343169892940519  1.2339532591718476
 10.2171209767069318  1.0487333332893398 10.5480149487747408
  3.5942632034341502  7.3711921363377257 10.5869815728582441
  2.9358415623643705  1.0977564317997923 10.5169386444896986
  9.8899708284679733  7.2171868886139148 10.4997427041296501
  2.9763667081997633  1.0152498005811990 17.9003365145165922
  9.6364895825569867  7.5543905661531596 17.8868003039773278
 10.3320756125380910  1.0453549716866681 17.8661860720118639
  3.5997736811547516  7.4620404163602707 18.0326823439379531
  3.0438554265264099 11.4104981233201865  8.6943220581016121
  9.7405884059425105  4.7921570216758118  8.6529112219033735
 10.3925767976925183 11.2105403040006131  8.6931419591260006
  3.5141892161887429  4.9115062352558674  8.7428069732556022
  6.6735695169259843  8.8225704375659539 11.7889937230951745
  5.3367714286762320 12.5335159171816191 12.5635239158908245
  4.4018684664766026 10.3416607736380275 11.5719976049912763
  7.8187008560074585 11.7938092665317189 13.0032913603192721
  5.7914818062981306 10.1283732250896072 13.9902234071643576
  6.7190785368778219 11.2130475048037326 10.5986014033755360
  8.4142425942179031  9.2877615497503356 13.6907991842510093
  9.3055811651565108 10.2829518744150139 11.3379460655138651
