 O Si Au 
 1.0000000000000000
    13.7029250099999995    0.0000001400000000    0.0000007200000000
     0.0000001300000000   12.6471261899999998   -0.0000012000000000
     0.0000009800000000   -0.0000017600000000   18.5380665200000010
 O   Si  Au 
  96  48   8
Cartesian
  0.1875726394513500  0.1009764126221500  2.8263746121527786
  7.2326334117503288  6.1482354253276235  2.6730727551706082
  0.2962008587399135 12.4144143920175818 11.9856730347052931
  7.0315012621062154  6.3473408021453732 11.7120836171430742
  0.3391064320365348 12.6356335076394348 15.8728907090227089
  7.1162491372518115  6.3009727595545302 15.8261792607729141
  0.1281935315933425  0.1401601599802892  6.3783589870728168
  7.0725575458274275  6.2287444007242554  6.3786924594471035
  2.0854363391616411  0.2281653854889092  4.5043422294429574
  9.0090493385492714  6.6787505848055551  4.6166876695708954
 11.9227673061489643  0.4054135607269502  4.5847825516147358
  5.2645483054713944  6.7820171275911623  4.4762478909651193
  2.0644879255832094 12.2727512426315961 13.8560459654430339
  8.6703170760787192  6.0096088496891378 13.8458878609700626
 12.2075499210670060 12.2990635580699230 13.9377647030674954
  5.4437478271790258  5.6315374048972382 13.7626823964423295
  2.0812349222095881  1.8520113213572842  2.2942352676774229
  8.7776778159578583  8.2500335436052730  2.4133947379671428
 12.1371405663309044  1.9860868788754167  2.4860838237954854
  5.5144827095516318  8.2298041834190876  2.3666634395818433
  1.9931488658920182 10.4750253010969221 11.8454504458237970
  8.8310310246677304  4.3431881548907301 11.8574844458968034
 12.0326767604411522 10.6929877547843368 11.7637205103623135
  5.1904152776106152  4.5040517615327547 11.4370188303700004
 12.3060503383239741 10.6015519196225476 16.0175105099635147
  5.2899723357612585  4.3304282955592193 15.9704351702175185
  2.0283916377118776 10.6693147437289717 15.9501100027787626
  9.0904620112113541  4.4876501932022448 16.0243427547664332
 11.8496472553070689  1.9580799216605773  6.6910109667943400
  5.3949023114365868  8.1163863585583247  6.7853306134891209
  2.1595491488031895  1.8040363136803674  6.6312789681244686
  8.7744854001135444  8.2618114017673303  6.7364093758616583
  2.4951414637777014 11.8034346967321895  2.2432116539581526
  9.7974409640479152  5.7797990344723340  2.2251947208152010
 11.3969933331523787 12.0087301459826623  2.2735044151914270
  4.6250971995949959  5.7573135419010537  2.0946067491886762
  2.8034351663881516  0.3943741632210629 11.3222565987677033
  9.5744902286722535  7.0196138721459826 11.6982876578690682
 11.5795287236369830  0.5330072256270708 11.5186382006136281
  4.3900351344462880  6.8559190384885635 11.6045589366662849
 11.3329701880341087  0.4368332197210104 16.2577506764642905
  4.4995784702949821  6.7726116165647143 16.0643934186958610
  2.9569856103069836  0.5291470376595566 16.2574528770145044
  9.6117447377273226  7.1666379486217977 16.0167087375532233
 11.4649088401759887 12.0096598975924920  6.9629539742870641
  4.5652878745340830  5.5403684720922408  6.7300306496059639
  2.4865323041401433 11.8596038017719305  6.9825176652711791
  9.6514725870451041  5.7274053328533414  6.9698901219103728
  2.3112530123678474 10.4675030303206622  0.0281664226635172
  8.9995022558372906  4.1930292942576299  0.2790311592825548
 11.8500568529007602 10.5921778535797895  0.1526837679992332
  5.0438633957177670  4.1960416965523066  0.0291732221709664
  2.3131181090881925  2.0569659403710054  9.2808758594027037
  8.9261168973885390  8.3696518144950502  9.2923423289509923
 11.9114788316551969  2.0131772531578429  9.3642314863317644
  5.0981631455620011  8.2903183630022195  9.4327861565384019
 11.9063942880635771  1.8393888214044065 18.3804795021067200
  5.1597278351387521  8.4647393659461159 18.1410890507791329
  2.2396217122461795  1.9887132252047455 18.2739933598304916
  9.0159923942666360  8.2822423657545841 18.3563688711228963
 11.8734571260043857 10.6472731984655251  9.0934034167958746
  5.1152197852641601  3.9898110046398423  8.8274797636629021
  2.1119766555624646 10.6776932238087081  9.1729328748036938
  9.1850821193761334  4.0994307460902188  9.0930164512292500
  0.2254119450845999  9.3350138030906269 17.5011320362267888
  7.1441923240152718  3.0320176796207754 17.3140572118098710
  0.1796625172147010  3.0350995880404552  7.9745320314923012
  7.0193919766792945  9.6887228712244085  8.2698490914035201
  0.2049582953053744  3.2496390223179050  0.9414159245695316
  7.0461309250574624  9.7709669521979698  0.8505606012497861
  0.1026988526653696  9.3528751433774158 10.2278773487211243
  7.1031873194652606  2.9673688924544237 10.2944564906707701
  2.6457294053679199  8.3505729573114902 16.9775477405314739
  9.6004913556889466  2.1879520607118264 17.1379372615095491
 11.4729184401790167  8.3341383190797931 17.4080938739261626
  4.6772932259357276  2.0415483614381067 17.2465734233777788
  2.4528752757534993  4.2678205934194349  7.6829871986623219
  9.5225832374160433 10.5517018815734573  7.7145804737615586
 11.5246057477274491  4.2080343967101523  8.0583874210197113
  4.3654750777906504 10.2585870935797150  7.7814221955290810
 11.4726033389554640  4.1175855705678757  1.3327333289571528
  4.5872135604958464 10.4157288691752825  1.4820286883052143
  2.6439557832283236  4.2336350140321555  1.2312960762929250
  9.4680575889992795 10.4875370418956795  1.3047618283223956
 11.3439967101837560  8.4999998367003915 10.4979479885920810
  4.6591475975894587  2.0269459890299104 10.5893802201753164
  2.5061126950588908  8.2896646405364152 10.4071073106144567
  9.6067041972806937  2.1003217417742022 10.7486313628539900
 10.0924336690334489 12.6290777188679773 18.5120233907763740
  3.5031506681828133  6.3729487859839633 18.4537256827037375
  3.8726842156822499 12.5821968832051265  0.1292592006885204
 10.7108468716794860  6.1367760588432620 18.3156851521991477
 10.1717181754981869  0.0083240669922124  9.2824471970792377
  3.5275413823444013  6.0979763536507141  9.1935877559146455
  4.0661639548560844 12.6337992305607738  8.9592280002267195
 10.5951391734752907  6.3081573593262474  9.3258601780393544
  1.7707494069875112  0.3926207929532987  2.9307740138416749
  8.7163355929028885  6.7066109598097849  3.0348203464650640
 12.3117661322207912  0.4507420269406243  3.0026818684135717
  5.6763174152344398  6.7240959784446890  2.8418274189983115
  1.8815813340685563 12.0547325142977346 12.2808890807555677
  8.5436766137742080  5.8924121272048362 12.2645496367722746
 12.4880770773129388 12.1471446581720741 12.3828000546542896
  5.5313125905680653  5.9058933054754821 12.2130944782573341
 12.5247968376154279 12.1604648141436300 15.5805318110557813
  5.6220710676527510  5.8052266844013571 15.4091934154145598
  1.8296482389165203 12.1990443972925693 15.4394914107822530
  8.6709665418030006  5.9467290831360398 15.4491354949314079
 12.2758129754624044  0.4974326412956063  6.1487650814602350
  5.5797434820452807  6.7029095828599461  6.0882890748473075
  1.7280198779270284  0.3155757197293657  6.0663724786103428
  8.6084275584615781  6.7731101285094040  6.2474225856611900
  1.7815188398974011  9.6974330533552013 17.2432427373002959
  8.7379419901749422  3.4940212635810011 17.3048290022010569
 12.3382792697996262  9.7165180410439191 17.3801938127373745
  5.5605067757959761  3.3826864341245089 17.2535464362549398
  1.7569609874735372  2.7624536258947296  7.8764090418643038
  8.5289587958019961  9.2621038555402055  7.9894001502272873
 12.2940246950404788  2.7609047017613779  8.0004107226180441
  5.5269313055132550  9.1045949895044362  8.0751307791021834
 12.3776934328016495  2.8138850526820001  1.1207125211398479
  5.5738231635242297  9.1788855138143592  0.9944903139100777
  1.8039549461769109  2.8736015193051534  1.0515601518753472
  8.5590926691604015  9.1750520656070655  1.0817851140890848
 12.2926240451165629  9.8362049075113909 10.4098429698065953
  5.5058454425562759  3.3824897945771761 10.3420107717318874
  1.7068405526133370  9.7265256322111977 10.4158978834276716
  8.6946153086082312  3.3881910126192012 10.4742229461154714
 10.7339146075513057 11.4465871338832059  0.9333412597917845
  3.9275857659058659  5.0918734768886198  0.8100362971838109
  3.3541702225108185 11.2940632208204210  0.9512373505436865
 10.2318248423392042  5.0665442485591390  0.8923947720591641
 10.8415696940163748  1.1486516108874814 10.2302560130729141
  3.8372522163689253  7.4569211063870151 10.1311766815503450
  3.4351355638661181  1.1295863905352179 10.0339690159879957
 10.0480118576013258  7.5662836455904525 10.2026256719676152
  3.4834015062290429  1.0630350956660570 17.6826764630960191
 10.1565281733530881  7.4395165051815910 17.5303470623030790
 10.7251753795385163  1.1159377328030853 17.5382662272973171
  3.9414488234302194  7.5494589297591475 17.4425437685665301
  3.2639454840102671 11.3917748508682930  8.3067478269928010
 10.2131192363625853  5.1070664515212814  8.3372680073521206
 10.6753321143684072 11.4787073536912292  8.2827186101995398
  3.9266147503329649  4.9255764793287105  8.1210415401747280
  6.8852446349631311  9.1127291502470413 11.8483557471544874
  5.1479908851413905 10.4094779685002035 15.4803505804529049
  6.4895567692537020  8.2967794491012121 14.3975998539761640
  5.3334716599247241 12.0740088259909815 13.2699269946174638
  7.4819892011062370 10.7157788774764917 14.0485516127531689
  4.4571713439539025  9.4747827275845626 12.9626476197875764
  7.4724288269100976 11.7668435710873602 11.6219740338733573
  5.0409168103348581 11.0021312179182509 10.8071351185915674
