 K  V  H  C Cl  O 
 1.0000000000000000
    12.1189730000000004    0.0000000000000000    0.0000000000000000
     6.0594869999999998   18.6757109999999997   -3.4984459999999999
     0.0000000000000000    0.0000000000000000   34.9844620000000006
 K   V   H   C   Cl  O  
  24  23  10   6  72   1
Selective dynamics
Cartesian
 10.0991463948289990  7.7815524752370004 13.9354762805179995   F   F   F
 10.0991405020089999 14.0067832499999998 13.9354658518460006   F   F   F
 10.0991462281620006  1.5563030247630001 13.9354902076360005   F   F   F
  4.0396597281620004  1.5563030247630001 10.4370440076360005   F   F   F
  4.0396598948290006  7.7815524752370004 10.4370300805180012   F   F   F
 16.1586270020089984 14.0067832499999998 10.4370196518460006   F   F   F
 14.1388001051710006 10.8941585247630002 13.9354903076359999   F   F   F
 14.1388002718379990 17.1194079752369994 13.9354763805180006   F   F   F
  2.0198329979910001  4.6689277499999999 13.9354657518460012   F   F   F
  8.0793194979909995  4.6689277499999999 10.4370195518459994   F   F   F
  8.0793136051710004 10.8941585247630002 10.4370441076360017   F   F   F
  8.0793137718379988 17.1194079752369994 10.4370301805180006   F   F   F
 10.0991463948289990  7.7815524752370004 20.9323686805179996   T   T   T
 10.0991405020089999 14.0067832499999998 20.9323582518459972   T   T   T
 10.0991462281620006  1.5563030247630001 20.9323826076359971   T   T   T
  4.0396597281620004  1.5563030247630001 17.4339364076360006   F   F   F
  4.0396598948290006  7.7815524752370004 17.4339224805180031   F   F   F
 16.1586270020089984 14.0067832499999998 17.4339120518460007   F   F   F
 14.1388001051710006 10.8941585247630002 20.9323827076360018   T   T   T
 14.1388002718379990 17.1194079752369994 20.9323687805179972   T   T   T
  2.0198329979910001  4.6689277499999999 20.9323581518459996   T   T   T
  8.0793194979909995  4.6689277499999999 17.4339119518460031   F   F   F
  8.0793136051710004 10.8941585247630002 17.4339365076360018   F   F   F
  8.0793137718379988 17.1194079752369994 17.4339225805180007   F   F   F
 12.1189732500000016  9.3378554999999999 10.4370196018460000   F   F   F
 12.1189673571800007 15.5630862747630001 10.4370441576360005   F   F   F
 12.1189791428200007  3.1126247252370001 10.4370300305180006   F   F   F
  6.0594926428200004  3.1126247252370001 13.9354762305179989   F   F   F
  6.0594867499999996  9.3378554999999999 13.9354658018460000   F   F   F
  6.0594808571800005 15.5630862747630001 13.9354903576360005   F   F   F
 12.1189671071800014  6.2252307747629994 10.4370440576359993   F   F   F
 12.1189793928200000 12.4504802252369995 10.4370301305180000   F   F   F
  0.0000000000000000  0.0000000000000000 17.4339119018460025   F   F   F
  6.0594865000000002  0.0000000000000000 13.9354657018460006   F   F   F
  6.0594806071799994  6.2252307747629994 13.9354902576360011   F   F   F
  6.0594928928199998 12.4504802252369995 13.9354763305180018   F   F   F
 12.1189732500000016  9.3378554999999999 17.4339120018460001   F   F   F
 12.1189673571800007 15.5630862747630001 17.4339365576360024   F   F   F
 12.1189791428200007  3.1126247252370001 17.4339224305180025   F   F   F
  6.0594926428200004  3.1126247252370001 20.9323686305179990   F   F   F
  6.0594867499999996  9.3378554999999999 20.9323582018460037   T   T   T
  6.0594808571800005 15.5630862747630001 20.9323827576360024   T   T   T
 12.1189671071800014  6.2252307747629994 17.4339364576360012   F   F   F
 12.1189793928200000 12.4504802252369995 17.4339225305180001   F   F   F
  6.0594865000000002  0.0000000000000000 20.9323581018459990   F   F   F
  6.0594806071799994  6.2252307747629994 20.9323826576360013   F   F   F
  6.0594928928199998 12.4504802252369995 20.9323687305180002   T   T   T
  4.2870447097739994 15.9650996297490000 24.0680191003240012   T   T   T
  5.7936451549300001 16.6833114476760009 23.5456416167700020   T   T   T
  5.7939480160979997 12.4567365884220003 24.3396279303820009   T   T   T
  4.2870446388460008 13.3158379701330016 24.5639797959420001   T   T   T
  5.3186541392199995 17.1334707856199984 25.9650130818780021   T   T   T
  6.8363555212489997 16.2681690678569986 25.7352106370720008   T   T   T
  6.8363493913130000 13.6367800636679988 26.2278233198679978   T   T   T
  5.3187449185299993 12.9132269923949998 26.7552595565699995   T   T   T
  5.5992507302689996 15.2544514747769995 27.5938301388900022   T   T   T
  4.1595409708090001 15.0674702562450005 26.5952056659899974   T   T   T
  5.8688493842780005 14.5317388104990002 23.7352468824300011   T   T   T
  5.3758435398810001 15.9036378648479992 24.1938617079260005   T   T   T
  5.3758495328439997 13.4188905434309991 24.6590395771920008   T   T   T
  5.7467507753219991 16.1759110555169983 25.6478894189320030   T   T   T
  5.7467446493100001 13.6910890312559985 26.1131862353680013   T   T   T
  5.2562413728330002 15.0628200042059994 26.5709229508660023   T   T   T
 11.1626590727499995 10.8941585247630002  8.7806697697840015   F   F   F
 11.1626713583899999 17.1194079752369994  8.7806558426660004   F   F   F
 11.1626649655699985  4.6689277499999999 15.7775376139939993   F   F   F
  5.1031784655700001  4.6689277499999999 12.2790914139940011   F   F   F
  5.1031725727500001 10.8941585247630002 12.2791159697839998   F   F   F
 17.2221578583899984 17.1194079752369994 12.2791020426660005   F   F   F
 13.0752874272500001  7.7815524752370004 12.0934044183700014   F   F   F
 13.0752815344300011 14.0067832499999998 12.0933939896980007   F   F   F
  0.9563021416099999  1.5563030247630001 12.0934183454880007   F   F   F
  7.0157886416100013  1.5563030247630001 15.5918645454880007   F   F   F
  7.0158009272499999  7.7815524752370004 15.5918506183699996   F   F   F
  7.0157950344300000 14.0067832499999998  8.5949477896980007   F   F   F
 11.1626590727499995 10.8941585247630002 12.0934184454880000   F   F   F
 11.1626713583899999 17.1194079752369994 12.0934045183700007   F   F   F
 11.1626649655699985  4.6689277499999999 12.0933938896979996   F   F   F
  5.1031784655700001  4.6689277499999999 15.5918400896980014   F   F   F
  5.1031725727500001 10.8941585247630002  8.5949722454880000   F   F   F
 17.2221578583899984 17.1194079752369994  8.5949583183699989   F   F   F
 13.0752874272500001  7.7815524752370004 15.7775481426659994   F   F   F
 13.0752815344300011 14.0067832499999998  8.7806453139940004   F   F   F
  0.9563021416099999  1.5563030247630001 15.7775620697840004   F   F   F
  7.0157886416100013  1.5563030247630001 12.2791158697840004   F   F   F
  7.0158009272499999  7.7815524752370004 12.2791019426660011   F   F   F
  7.0157950344300000 14.0067832499999998 12.2790915139940005   F   F   F
  7.9721091700129998 10.8941585247630002 13.9354903076359999   F   F   F
  7.9721093366799991 17.1194079752369994 13.9354763805180006   F   F   F
  7.9721029438599995  4.6689277499999999 13.9354657518460012   F   F   F
  1.9126164438600000  4.6689277499999999 10.4370195518459994   F   F   F
 14.0315956700129991 10.8941585247630002 10.4370441076360017   F   F   F
 14.0315958366799993 17.1194079752369994 10.4370301805180006   F   F   F
  4.1468643299870003  7.7815524752370004 13.9354762805179995   F   F   F
 16.2658435561399983 14.0067832499999998 13.9354658518460006   F   F   F
  4.1468641633200001  1.5563030247630001 13.9354902076360005   F   F   F
 10.2063506633200003  1.5563030247630001 10.4370440076360005   F   F   F
 10.2063508299870005  7.7815524752370004 10.4370300805180012   F   F   F
 10.2063570561399999 14.0067832499999998 10.4370196518460006   F   F   F
 11.1626590727499995 10.8941585247630002 15.7775621697840016   F   F   F
 11.1626713583899999 17.1194079752369994 15.7775482426659988   F   F   F
 11.1626649655699985  4.6689277499999999 22.7744300139939995   T   T   T
  5.1031784655700001  4.6689277499999999 19.2759838139940030   F   F   F
  5.1031725727500001 10.8941585247630002 19.2760083697840017   F   F   F
 17.2221578583899984 17.1194079752369994 19.2759944426659970   T   T   T
 13.0752874272500001  7.7815524752370004 19.0902968183700033   F   F   F
 13.0752815344300011 14.0067832499999998 19.0902863896980008   F   F   F
  0.9563021416099999  1.5563030247630001 19.0903107454880008   F   F   F
  7.0157886416100013  1.5563030247630001 22.5887569454879973   T   T   T
  7.0158009272499999  7.7815524752370004 22.5887430183699998   T   T   T
  7.0157950344300000 14.0067832499999998 15.5918401896980008   F   F   F
 11.1626590727499995 10.8941585247630002 19.0903108454880019   F   F   F
 11.1626713583899999 17.1194079752369994 19.0902969183700009   T   T   T
 11.1626649655699985  4.6689277499999999 19.0902862896980032   F   F   F
  5.1031784655700001  4.6689277499999999 22.5887324896979997   T   T   T
  5.1031725727500001 10.8941585247630002 15.5918646454880019   F   F   F
 17.2221578583899984 17.1194079752369994 15.5918507183700008   F   F   F
 13.0752874272500001  7.7815524752370004 22.7744405426659995   T   T   T
 13.0752815344300011 14.0067832499999998 15.7775377139940005   F   F   F
  0.9563021416099999  1.5563030247630001 22.7744544697840006   T   T   T
  7.0157886416100013  1.5563030247630001 19.2760082697840005   F   F   F
  7.0158009272499999  7.7815524752370004 19.2759943426659994   F   F   F
  7.0157950344300000 14.0067832499999998 19.2759839139940006   F   F   F
  7.9721091700129998 10.8941585247630002 20.9323827076360018   T   T   T
  7.9721093366799991 17.1194079752369994 20.9323687805179972   T   T   T
  7.9721029438599995  4.6689277499999999 20.9323581518459996   F   F   F
  1.9126164438600000  4.6689277499999999 17.4339119518460031   F   F   F
 14.0315956700129991 10.8941585247630002 17.4339365076360018   F   F   F
 14.0315958366799993 17.1194079752369994 17.4339225805180007   F   F   F
  4.1468643299870003  7.7815524752370004 20.9323686805179996   T   T   T
 16.2658435561399983 14.0067832499999998 20.9323582518459972   T   T   T
  4.1468641633200001  1.5563030247630001 20.9323826076359971   F   F   F
 10.2063506633200003  1.5563030247630001 17.4339364076360006   F   F   F
 10.2063508299870005  7.7815524752370004 17.4339224805180031   F   F   F
 10.2063570561399999 14.0067832499999998 17.4339120518459971   F   F   F
  5.4219440697829997 14.2829596642680006 22.4067154337619989   T   T   T
