 O Si Au 
 1.0000000000000000
     8.9848655900000001   -0.0000010900000000   -0.0000004000000000
    -0.0000010900000000    8.9848744800000002   -0.0000018100000000
    -0.0000004000000000   -0.0000018100000000    8.9848666399999999
 O   Si  Au 
  24  12   8
Cartesian
  1.2678347152778131  4.4955155428249292  7.7356177269934108
  5.8074074293343640  0.1218407338544229  3.2140386278333990
  7.8623348602231617  1.1713291571763906  4.6189601417971637
  3.1902624806685576  5.8896543760147821  8.9277860710143759
  4.6644723890165114  7.7612700685629701  1.2009709405649831
  0.0810321604727639  3.0953887042446371  5.8321162016590851
  1.3315575209538955  4.7562226556180001  1.3627066614205929
  5.8288773702992707  8.9637557927603631  5.9022768683906328
  4.4562345681673028  7.5962580883369126  7.5626644771423868
  8.9191415859898289  3.1292233183057165  3.1724499007942581
  7.6087074245574611  4.0999906285602359  7.7217218890295980
  3.1109457067493063  8.7193106706758599  3.1850090681747014
  1.5134291736816416  1.4073856342188635  4.3560860904162499
  5.8523556218338708  5.7366231401981427  8.8862306157231945
  7.7573509194049697  4.6892215008394169  1.2958801853295936
  2.9992100407903983  0.0254546514404080  5.9599598418388684
  4.6564550631452946  1.2055903749962695  7.8647502696660556
  0.0527919720808355  5.8034762046111554  3.3212736502371412
  1.1862883587165081  7.7240697142201187  4.6782117088423103
  5.9137736503735097  2.9230185095349426  0.3374591484020337
  4.0797102740577715  1.2045012718411197  1.3068272242303050
  8.8695038954653267  5.7532876160620559  5.9316909579937747
  7.5435226682733454  7.5227321224355617  4.5767511177310087
  3.0781131854094403  3.1389653575790830  8.8732625958684235
  2.2569893271143164  4.5428615999207613  0.0460783221689163
  6.7535068904777482  8.9729967978911365  4.5930260481783307
  0.1229450181937483  2.2022326912123891  4.5177461153695209
  4.5755898361237293  6.7294832718628710  8.9382443147748933
  4.4665145002795903  0.0012954239567842  2.2920154708600990
  8.9103064526123852  4.3829953276806890  6.8324657128147148
  4.4406809198555210  0.0620259947365059  6.7319638609956236
  0.0351482309072914  4.5193828490514809  2.3553926595228831
  6.7312180900198983  4.3134622811548864  0.1235578189316969
  2.2587288695944050  8.9560887155013749  4.5552518956637575
  4.4311387566261766  2.2280723046015578  0.0753691772398531
  8.9599461229866399  6.6986409519439176  4.6684794313380982
  4.4498790843259499  3.7103735062783243  2.8858894313828363
  4.5591189115586808  4.2166802673121673  6.7877221128015952
  4.4612607532656430  2.2053036459299835  4.9554174641689492
  4.4030831383368669  6.3539424105065487  5.3393573233368441
  6.3966248398586423  4.1021855720155944  4.7422476205982704
  2.6528207368323184  4.1530395778339768  4.8875928199573568
  5.7928626533021763  6.0025216273415163  3.0150433129369456
  3.0572979510327687  5.9759780219593592  3.0766964269206754
