 Y  H  C  O 
 1.0000000000000000
     9.5398800000000001    0.0000000000000000    5.5078519999999997
    -0.0000000000000000   12.0477240000000005    0.0000000000000000
     0.0000000000000000    0.0000000000000000   36.7190160000000034
 Y   H   C   O  
  24  33  22   1
Selective dynamics
Cartesian
  2.1199712133599999  4.6747940096520004 19.8282795668160006   F   F   F
  2.1199712133599999 10.6986560096519998 19.8282795668160006   F   F   F
  5.2999375732800003  4.6747940096520004 21.6642339053840018   F   F   F
  5.2999375732800003 10.6986560096519998 21.6642339053840018   F   F   F
  8.4798943933200004  4.6747940096520004 23.5001827361000011   F   F   F
  8.4798943933200004 10.6986560096519998 23.5001827361000011   F   F   F
  1.0599856066800000  1.3490679903480001 17.9923049439000025   F   F   F
  1.0599856066800000  7.3729299903480001 17.9923049439000025   F   F   F
  4.2399424267199999  1.3490679903480001 19.8282537746160017   F   F   F
  4.2399424267199999  7.3729299903480001 19.8282537746160017   F   F   F
  7.4199087866399998  1.3490679903480001 21.6642081131840030   F   F   F
  7.4199087866399998  7.3729299903480001 21.6642081131840030   F   F   F
  2.1199712133599999  4.6747940096520004 23.5001811668159988   T   T   T
  2.1199712133599999 10.6986560096519998 23.5001811668159988   T   T   T
  5.2999375732800003  4.6747940096520004 25.3361355053840001   T   T   T
  5.2999375732800003 10.6986560096519998 25.3361355053840001   T   T   T
  8.4798943933200004  4.6747940096520004 27.1720843360999993   T   T   T
  8.4798943933200004 10.6986560096519998 27.1720843360999993   T   T   T
  1.0599856066800000  1.3490679903480001 21.6642065439000007   F   F   F
  1.0599856066800000  7.3729299903480001 21.6642065439000007   F   F   F
  4.2399424267199999  1.3490679903480001 23.5001553746159999   F   F   F
  4.2399424267199999  7.3729299903480001 23.5001553746159999   F   F   F
  7.4199087866399998  1.3490679903480001 25.3361097131840012   F   F   F
  7.4199087866399998  7.3729299903480001 25.3361097131840012   F   F   F
  2.1199712133599999  2.3449208084640003 19.8282795668160006   F   F   F
  2.1199712133599999  8.3687828084640010 19.8282795668160006   F   F   F
  5.2999375732800003  2.3449208084640003 21.6642339053840018   F   F   F
  5.2999375732800003  8.3687828084640010 21.6642339053840018   F   F   F
  8.4798943933200004  2.3449208084640003 23.5001827361000011   F   F   F
  8.4798943933200004  8.3687828084640010 23.5001827361000011   F   F   F
  1.0599856066800000  3.6789411915360004 17.9923049439000025   F   F   F
  1.0599856066800000  9.7028031915360007 17.9923049439000025   F   F   F
  4.2399424267199999  3.6789411915360004 19.8282537746160017   F   F   F
  4.2399424267199999  9.7028031915360007 19.8282537746160017   F   F   F
  7.4199087866399998  3.6789411915360004 21.6642081131840030   F   F   F
  7.4199087866399998  9.7028031915360007 21.6642081131840030   F   F   F
  2.1199712133599999  2.3449208084640003 23.5001811668159988   T   T   T
  2.1199712133599999  8.3687828084640010 23.5001811668159988   T   T   T
  5.2999375732800003  2.3449208084640003 25.3361355053840001   T   T   T
  5.2999375732800003  8.3687828084640010 25.3361355053840001   T   T   T
  8.4798943933200004  2.3449208084640003 27.1720843360999993   T   T   T
  8.4798943933200004  8.3687828084640010 27.1720843360999993   T   T   T
  1.0599856066800000  3.6789411915360004 21.6642065439000007   F   F   F
  1.0599856066800000  9.7028031915360007 21.6642065439000007   F   F   F
  4.2399424267199999  3.6789411915360004 23.5001553746159999   F   F   F
  4.2399424267199999  9.7028031915360007 23.5001553746159999   F   F   F
  7.4199087866399998  3.6789411915360004 25.3361097131840012   F   F   F
  7.4199087866399998  9.7028031915360007 25.3361097131840012   F   F   F
  4.0123399696800002 11.1204227314440018 27.8124843579200025   T   T   T
  4.1250345721199997  9.8140157317799996 29.9529073979160039   T   T   T
  4.5089193433199997  8.3496148795800007 29.0381999742440016   T   T   T
  2.3204708713200000  8.5574140231319991 27.7061076035560028   T   T   T
  1.9120972281599999 10.0048155367679996 28.6586337787840009   T   T   T
  1.9580794497600000 10.0671143175720008 26.8833795103040032   T   T   T
  6.2464749270000004 10.8633243012840008 29.0776508121799999   T   T   T
  6.6249219665999997  9.3503229304679998 28.2295700432680015   T   T   T
  6.5428789986000009  9.3777194548439997 29.9959015923720003   T   T   T
  0.0000000000000000  0.0000000000000000 16.1563670400000028   F   F   F
  0.0000000000000000  6.0238620000000003 16.1563670400000028   F   F   F
  3.1799568200400001  0.0000000000000000 17.9923158707160020   F   F   F
  3.1799568200400001  6.0238620000000003 17.9923158707160020   F   F   F
  6.3599231799600000  0.0000000000000000 19.8282702092840033   F   F   F
  6.3599231799600000  6.0238620000000003 19.8282702092840033   F   F   F
  0.0000000000000000  0.0000000000000000 19.8282686400000046   F   F   F
  0.0000000000000000  6.0238620000000003 19.8282686400000046   F   F   F
  3.1799568200400001  0.0000000000000000 21.6642174707160038   F   F   F
  3.1799568200400001  6.0238620000000003 21.6642174707160038   F   F   F
  6.3599231799600000  0.0000000000000000 23.5001718092840015   F   F   F
  6.3599231799600000  6.0238620000000003 23.5001718092840015   F   F   F
  0.0000000000000000  0.0000000000000000 23.5001702400000028   T   T   T
  0.0000000000000000  6.0238620000000003 23.5001702400000028   T   T   T
  3.1799568200400001  0.0000000000000000 25.3361190707160020   T   T   T
  3.1799568200400001  6.0238620000000003 25.3361190707160020   T   T   T
  6.3599231799600000  0.0000000000000000 27.1720734092840033   T   T   T
  6.3599231799600000  6.0238620000000003 27.1720734092840033   T   T   T
  3.9136594509600000 10.0290194142840008 27.8100388755919994   T   T   T
  4.6069797698400006  9.4422229691399995 29.0413522976560046   T   T   T
  2.4408069176399998  9.6444199210320001 27.7710672097160014   T   T   T
  6.0915281960400005  9.7798242910679996 29.0832210934040027   T   T   T
  4.5499312874399997  9.5337254329200007 26.6351551815680025   T   T   T
