Sr Cu Bi  H  C  O 
 1.0000000000000000
     8.9253210000000003    0.0000000000000000    0.0000000000000000
     0.0000000000000000   20.2735689999999984    2.3409900000000001
     0.0000000000000000    0.0000000000000000   32.7738609999999966
 Sr  Cu  Bi  H   C   O  
  18  20  20   8   4   1
Selective dynamics
Cartesian
  4.4626605000000001  8.1094276000000001 16.2308753912869967   F   F   F
  4.4626605000000001  4.0547138000000000 13.8898806521639990   F   F   F
  4.4626605000000001  0.0000000000000000 16.2308613739179997   F   F   F
  4.4626605000000001 16.2188552000000001 16.2308566347949998   F   F   F
  4.4626605000000001 12.1641413999999983 13.8898618956719986   F   F   F
  0.0000000000000000  8.1094276000000001 16.2308753912869967   F   F   F
  0.0000000000000000  4.0547138000000000 13.8898806521639990   F   F   F
  0.0000000000000000  0.0000000000000000 16.2308613739179997   F   F   F
  0.0000000000000000 16.2188552000000001 16.2308566347949998   F   F   F
  0.0000000000000000 12.1641413999999983 13.8898618956719986   F   F   F
  4.4626605000000001  8.1094276000000001 20.9128508521639951   T   T   T
  4.4626605000000001  4.0547138000000000 18.5718561130409974   F   F   F
  4.4626605000000001 16.2188552000000001 20.9128320956719982   T   T   T
  4.4626605000000001 12.1641413999999983 18.5718701304099980   F   F   F
  0.0000000000000000  8.1094276000000001 20.9128508521639951   T   T   T
  0.0000000000000000  4.0547138000000000 18.5718561130409974   F   F   F
  0.0000000000000000 16.2188552000000001 20.9128320956719982   T   T   T
  0.0000000000000000 12.1641413999999983 18.5718701304099980   F   F   F
  2.2313302500000001  6.7578495754769996 13.8898736196699986   F   F   F
  2.2313302500000001  2.7031357754770000 16.2308543414239992   F   F   F
  2.2313302500000001 18.9219909754769979 16.2308496023009994   F   F   F
  2.2313302500000001 14.8672771754769997 13.8898876370389992   F   F   F
  2.2313302500000001 10.8125633754769979 16.2308683587929998   F   F   F
  6.6939907500000002  9.4610056245229988 13.8898689281659991   F   F   F
  6.6939907500000002  5.4062918245229996 16.2308496499199997   F   F   F
  6.6939907500000002  1.3515780245230000 13.8898876846579977   F   F   F
  6.6939907500000002 17.5704332245229971 13.8898829455349979   F   F   F
  6.6939907500000002 13.5157194245229988 16.2308636672889968   F   F   F
  2.2313302500000001  6.7578495754769996 18.5718490805470005   F   F   F
  2.2313302500000001  2.7031357754770000 20.9128298023009975   T   T   T
  2.2313302500000001 18.9219909754769979 20.9128578370389953   T   T   T
  2.2313302500000001 14.8672771754769997 18.5718630979159975   F   F   F
  2.2313302500000001 10.8125633754769979 20.9128438196699982   T   T   T
  6.6939907500000002  9.4610056245229988 18.5718443890429974   F   F   F
  6.6939907500000002  5.4062918245229996 20.9128578846579991   T   T   T
  6.6939907500000002  1.3515780245230000 18.5718631455349978   T   T   T
  6.6939907500000002 17.5704332245229971 18.5718584064120016   F   F   F
  6.6939907500000002 13.5157194245229988 20.9128391281659987   T   T   T
  6.6939907500000002  6.7578495754769996 13.8898736196699986   F   F   F
  6.6939907500000002  2.7031357754770000 16.2308543414239992   F   F   F
  6.6939907500000002 18.9219909754769979 16.2308496023009994   F   F   F
  6.6939907500000002 14.8672771754769997 13.8898876370389992   F   F   F
  6.6939907500000002 10.8125633754769979 16.2308683587929998   F   F   F
  2.2313302500000001  9.4610056245229988 13.8898689281659991   F   F   F
  2.2313302500000001  5.4062918245229996 16.2308496499199997   F   F   F
  2.2313302500000001  1.3515780245230000 13.8898876846579977   F   F   F
  2.2313302500000001 17.5704332245229971 13.8898829455349979   F   F   F
  2.2313302500000001 13.5157194245229988 16.2308636672889968   F   F   F
  6.6939907500000002  6.7578495754769996 18.5718490805470005   F   F   F
  6.6939907500000002  2.7031357754770000 20.9128298023009975   T   T   T
  6.6939907500000002 18.9219909754769979 20.9128578370389953   T   T   T
  6.6939907500000002 14.8672771754769997 18.5718630979159975   F   F   F
  6.6939907500000002 10.8125633754769979 20.9128438196699982   T   T   T
  2.2313302500000001  9.4610056245229988 18.5718443890429974   F   F   F
  2.2313302500000001  5.4062918245229996 20.9128578846579991   T   T   T
  2.2313302500000001  1.3515780245230000 18.5718631455349978   T   T   T
  2.2313302500000001 17.5704332245229971 18.5718584064120016   F   F   F
  2.2313302500000001 13.5157194245229988 20.9128391281659987   T   T   T
  3.5222262021930004  1.1039971998950000 23.1594405236439975   T   T   T
  3.3973341854400001 -0.2378495115080000 22.0138419220669981   T   T   T
  0.8360258927490001 -0.0246121127660000 21.9786849324230005   T   T   T
  0.9586330273260001  1.2951972291339999 23.1670323537720009   T   T   T
  0.1108346361780000  1.5360675024229999 21.6240600459539962   T   T   T
  4.9218325641660003  2.3549980486089996 21.4731130032629984   T   T   T
  4.8255283505760005  0.9579464088190000 20.3819353980709970   T   T   T
  5.6376343830450004  0.8049823307139999 21.9454147786049987   T   T   T
  2.2677277090380001  1.5183281295479998 21.4455572120799971   T   T   T
  3.4838294712510001  0.8528482271229999 22.0931804127349949   T   T   T
  0.9727261091850000  1.0556650113989998 22.0994917212529991   T   T   T
  4.7904339884039997  1.2692065136760000 21.4305889224410002   T   T   T
  2.2313302500000001  1.1795162444200000 20.0619524873969972   T   T   T
