 O Si Au 
 1.0000000000000000
    18.1541673199999991    0.0003963400000000    0.0000389000000000
    -9.0767404299999992   15.7217942399999995    0.0000413600000000
     0.0000163600000000    0.0000295300000000    7.6305892899999996
 O   Si  Au 
  72  36   8
Cartesian
 14.3375078817174710  6.9830391777293652 -11.8243116034561666
  5.9972693012759652 13.6877453584094688 -12.0173355919900775
  4.0143133024038296  2.5324446423916935 -11.8121309957552043
 10.7511418705968218 14.2720316123396120 -7.7668059406289922
  1.9317779724395208  7.4347927671666820 -8.0465550598588607
 12.3579267552885685  2.3299129298375112 -8.3236520426689626
 12.5229059591605978  2.5713557924546260 -11.7995925978214036
  1.7156297751391520  7.0498250210403741 -11.8709618751053672
 10.8205114431562244 13.4272042800424884 -11.6715206049836482
  4.8294444898019755  2.7593205965834446 -8.0831302325050451
  5.8015491717891354 13.8623425737108743 -8.2014243717256434
 14.9969165640909559  6.6376887903946882 -7.7317690776027286
 -2.9249551318829328  9.4888557106792799 -4.5824411574068611
  3.4047306362386958 13.2379678832520344 -5.0677592882957443
 -3.1837411505440483 16.4450732689599413 -4.8751014127463943
 10.3511581936023624 12.0017690712040572 -8.9226731589391335
  4.4614643656052193  8.0869133892281866 -8.4748246809599177
 10.3947812980728109  4.0492280275939594 -8.7964254148224388
  1.8013291230791526 16.5119008039114483 -5.1873060710916299
  0.8109323020684356  9.3071778960958742 -5.1229610571438258
 -4.6198950933540095 13.1897027877412683 -4.3318204653630676
  6.2884515980325943  4.7888015714890795 -7.9691811942939950
  6.4538696809409686 11.3056860188807438 -8.6625711921590440
 12.8222082368210692  7.2378885966717563 -9.0614143511075547
 10.2696646249400523 10.9039859490917976 -11.4004765794165319
  4.2977369686128872  7.8695303668462895 -11.2145417904470630
 10.1069202034278192  3.6739040714872115 -11.4679720877267535
 -2.7104281017119756  9.2432694292764861 -7.2625307479822929
  3.3634640779209048 12.8239045182302842 -7.7109631231199094
 -2.8543520868536461 16.2139989106309130 -7.5133380677133719
  6.1778764134775104  6.5807365841693954 -9.9554683563546824
  5.9860249879508567 10.8774311582044607 -11.6966877117960237
 11.9233195236622773  8.1205637101539239 -11.7671069551609815
  1.1855819633336695 16.5157160418171998 -7.7901442684792555
  0.7319121966754949  9.8336949257807369 -7.7869493633438687
 -4.9541682222071115 13.6150821180903190 -6.9714271017907246
 -1.0848938420699930  7.6085010553371770 -11.8203721511902504
  4.2092482914880378 15.6878056945399074 -11.9282119527139994
 -5.6564234555924342 15.6163019753822105 -11.6537673094265646
  8.3408957604591230 13.1696884285278735 -7.8307498865045355
  3.9491095772013538  5.5469940265924818 -8.2142853776928728
 12.9017313635957613  4.8464197633879902 -7.8558244026023498
  8.3948335807925805 11.9783196309594491 -12.7690229688719228
  3.7043605165638116  5.2984313408095076 -11.6961645890883350
 12.1980975169335135  5.2881422896752017 -12.0498650262368727
 -0.7221957695805199  7.6298513342114882 -8.0548323277347471
  3.6517135741615636 15.4302418922574294 -8.1646392662530207
 -5.4255481633358560 16.0350153785110692 -7.9605954690823406
 -2.6666994963407173  8.3313366376371150 -9.7817481577342900
  4.0317175017959084 13.7313491607529539 -10.1785759908045410
 -3.8612134496361716 16.7362998782533268 -9.9901127092927737
 10.5759785602354306 12.0592084757516531 -6.3130661895782278
  3.6841766645785921  7.1475996041188044 -6.0574885063023363
 11.1785648124071173  3.6355730713680483 -6.2503959854618607
  2.2912275070355568 16.4652314791631014 -10.2223398669166770
  0.6690759248551484  8.6591042285181548 -10.1129952477361211
 -5.5481743449756067 13.8907135808793853 -9.6179924675777961
  3.3267277306381127  3.9882988322328887 -6.4008935437762045
  6.2815701470241079 12.0664796880555354 -6.3012770554798561
 12.7117001310989064  7.0432989028160264 -6.3516931020973537
  5.5726138901087907  4.2374428115504763 -5.7172354111977217
  8.3263934401756892  6.5425110959969883 -8.4754629914665536
  7.6036848789772531 12.1883634155847460 -10.6450522287049960
  1.3665359979035210 14.2207640028827349 -6.5075610517689508
 -2.5695554921729125 14.0521176648886446 -5.8588439185606775
 -1.0595037040889996 10.9139494325767572 -6.0564924841511232
  7.8905361175647117  4.4336974622122893 -10.0351199991419513
 11.4368042632295079  9.6474114540566607 -9.5606031551103534
  6.2149826571184974  9.2622534577718891 -9.8573042267416096
 -0.6994726900866786 15.9423836196644544 -5.9589458710946062
 -3.5890802597968863 11.5303245334754969 -6.1204070483604394
  1.5266602166017194 11.6685506107038997 -6.1193200461738284
 -2.6400917124594563  8.0780383036815344 -11.3968548681942217
  4.4387639379301733 14.0545163493494929 -11.7342393022862002
 -4.4662191092513552 16.7415232850753526 -11.5074061581188989
  9.9300856474626187 12.8809464954518216 -7.6175625407447196
  3.4731408524832128  7.0050422757103190 -7.6797364968922048
 11.7029701892607374  3.7269929263010702 -7.7892979317372086
  2.9570122296986781 16.7066658235954861 -11.6881046646320197
  0.4895437632782646  8.1417663347014209 -11.6513391825577894
 -5.8252243823575700 14.0290398978976913 -11.2226706684263426
  4.7495551268125533  4.2724758580620028 -7.3935135396982892
  6.7838710909289572 12.6212295785507962 -7.7519986171993862
 13.3660194583417251  6.4412898748786782 -7.7548052053962726
  9.9736219077224657 12.1774772783660161 -4.7593976201724848
  3.3367350741041242  6.8544670461584989 -4.4838418269909850
 11.5375297801109831  3.7806529785588738 -12.3042389005123756
 -2.3220117690262421  7.9728956006806504 -8.2166204666890863
  4.2042199979740111 13.9340354284110486 -8.5861395315581479
 -4.0850244062184240 16.9091486936120674 -8.3771072723274216
  4.0939224204303670  3.9780796865089414 -4.9733139124837820
  6.7892320874958969 12.2379666951538706 -4.6788901496661168
 12.7874853281259711  6.8212275617038411 -4.7356838772892509
  2.5959376759977610 16.5867564444623810 -8.6328136396353639
  0.6738994732347047  8.3709946363568655 -8.5088718099075322
 -5.7960279345309740 14.4509383498435753 -8.0930957612310888
  7.1200919331773918  5.5982425103943969 -9.0382309855501290
 10.9816186689541180  8.3375330353538288 -10.4243420880232609
  6.7586962745233912 10.8347589753129743 -10.1795977119826428
  0.8959679014913506 15.7760648107729509 -6.3386329318182373
 -3.9123300953634437 13.1083085252842633 -5.8136353286426283
  0.4830797898559729 10.4309806075734191 -6.2802464330974841
 10.1631266845549550 10.6969528013699300 -9.7703020932504927
  9.5220582599481762  4.5106041630987717 -10.1860453008535394
  5.2829323236172412  7.9413040408909410 -9.8964283830912976
 -2.5629109799504164 10.2658316959885312 -5.9943857524982755
 -2.3300734075503748 15.6796499770191886 -6.0506963779758607
  2.4250237498207756 12.9812959746731842 -6.3599614670753617
  7.9916959577677318  9.0294568950476357 -4.3770266547381116
  6.9922548039418260  5.6487199825360914 -12.4339436659615252
  6.5988942914577606  9.5913246121749438 -6.5332400479247381
 11.1591537072513187  6.2110094197585779 -2.0959361837474253
  9.2002020934185733  9.8272845550944545 -6.8859417909140905
  8.5640297979936104  9.0238078477679213 -1.6685796247502702
  8.9882744161315262  6.8074763845807906 -11.1312660989091068
  8.0099141258361399  7.3492362337927908 -6.5184848145117495
