 O Si Au 
 1.0000000000000000
     8.9848655900000001   -0.0000010900000000   -0.0000004000000000
    -0.0000010900000000    8.9848744800000002   -0.0000018100000000
    -0.0000004000000000   -0.0000018100000000    8.9848666399999999
 O   Si  Au 
  24  12   8
Cartesian
  1.1530047729545581  4.6956029094789082  7.9918926835760722
  5.7686681026444857  8.9608903174368333  3.3575551786297493
  7.5891558411644304  1.3003206964643856  4.7382074577170146
  3.3988409739704086  5.6756186747400399  0.3184707176384375
  4.6393690239066672  7.7975889752567848  1.3276570148981324
  0.2201219194814393  3.0051687119788948  6.1568982079384051
  1.3761811657145300  4.3482971774863666  1.5699323580653883
  5.6568718358672054  8.8082494459504126  6.0197900680081293
  4.2495920113957375  7.4674774216564765  7.7442667266611380
  8.7388917699790838  3.2296700466212420  3.4563698774345593
  7.6289379108535309  4.2191883631241103  7.7734569957757227
  3.2134014461651721  8.9124783289238039  3.3467951157016977
  1.3114033016711677  1.3516675409606238  4.5345757875096089
  6.0872907173627082  6.0219204373665809  0.0783815939646545
  7.7799570531280153  4.4166351376423743  1.3153666180044490
  2.9155844760445881  8.9148595210296229  6.0995945627063213
  4.4791483622786625  1.0870773563423535  8.0137096866692623
  8.8919790138764565  5.9271693198974456  3.0751160085010887
  1.3069492766575841  7.6914596787139242  4.4698993739647852
  5.7175409194339295  3.2268118971131305  0.2262192590425973
  4.4942585471757717  1.4225377483479855  1.5607341920265867
  8.9717058627992454  5.6598998446866071  5.7428989777464157
  7.7020908752582482  7.6602034288206031  4.7715058842340774
  2.9344002768951607  2.9757508927016989  8.9451997902017535
  2.2895500311549029  4.4782167380767497  0.2135715221849028
  6.6983257082237113  8.9269171258809887  4.7476244373048475
  8.9755685566842107  2.2345788248912215  4.7541235396469430
  4.6343289692367291  6.7093742846576436  0.1290019892659460
  4.4692242371060216  0.0252193324297312  2.4241946243696924
  8.9772267978789646  4.4464089276375613  6.9254273502055730
  4.3045993835931524  8.8451631525586674  6.9396354300533778
  8.9709887217974060  4.4088072414728661  2.4018957074926268
  6.7098993162569984  4.5204833217540425  0.0936410474225991
  2.2450470762794903  0.0246112349559224  4.6614403535656068
  4.3984943060983746  2.2438289658748505  0.2104588916680422
  8.9566340453875135  6.6494093545930353  4.5015680230752979
  4.5227674496890939  3.8303720918600277  2.7611854748616724
  4.5572653432440386  4.1327379063847660  6.8040496989984822
  4.2578074587315342  2.2072813409528549  4.9076680280105354
  4.5402056059063574  6.1669293682143094  5.1477804111318930
  6.3932740210998356  4.1088934901835286  4.7910331990346764
  2.6093956105760703  4.2519989862204737  4.9094560373450502
  5.9552851232702890  6.0285529589568601  2.9476259825694302
  3.0095100542705744  6.0171982181751886  3.0160346443810759
