Na Sc  H  O 
 1.0000000000000000
     9.5553489999999996    0.0000000000000000    0.0000000000000000
     0.0000000000000000    5.7750830000000004   -0.1880510000000000
     0.0000000000000000    0.0000000000000000   31.3962569999999985
 Na  Sc  H   O  
  12  12   1  23
Cartesian
  0.7962758982170001  1.4437707500000001 11.7265836250000000
  3.9813986017829999  1.4437707500000001 11.7265836250000000
  7.1665117499999997  1.4437707500000001 11.7265836250000000
  2.3888372499999999  2.4062865083610001 14.3115860135639998
  5.5739503982169998  2.4062865083610001 14.3115860135639998
  8.7590731017830006  2.4062865083610001 14.3115860135639998
  0.7962758982170001  3.3687964916390003 16.8966199864360007
  3.9813986017829999  3.3687964916390003 16.8966199864360007
  7.1665117499999997  3.3687964916390003 16.8966199864360007
  2.3888372499999999  4.3313122499999999 19.4816223750000006
  5.5739503982169998  4.3313122499999999 19.4816223750000006
  8.7590731017830006  4.3313122499999999 19.4816223750000006
  2.3888372499999999  4.3313122499999999 11.6325581249999992
  5.5739503982169998  4.3313122499999999 11.6325581249999992
  8.7590731017830006  4.3313122499999999 11.6325581249999992
  0.7962758982170001  5.2938280083610003 14.2175605135639991
  3.9813986017829999  5.2938280083610003 14.2175605135639991
  7.1665117499999997  5.2938280083610003 14.2175605135639991
  2.3888372499999999  0.4812549916390000 16.9906454864359979
  5.5739503982169998  0.4812549916390000 16.9906454864359979
  8.7590731017830006  0.4812549916390000 16.9906454864359979
  0.7962758982170001  1.4437707500000001 19.5756478749999978
  3.9813986017829999  1.4437707500000001 19.5756478749999978
  7.1665117499999997  1.4437707500000001 19.5756478749999978
  0.7962758982170001  2.2048631634870000 21.4808241358079997
  0.7962758982170001  3.6091669962650004 12.8825677419999991
  3.9813986017829999  3.6091669962650004 12.8825677419999991
  7.1665117499999997  3.6091669962650004 12.8825677419999991
  3.9813986017829999  5.0534575037350002 10.3825485079999993
  7.1665117499999997  5.0534575037350002 10.3825485079999993
  2.3888372499999999  4.5716769795430006 15.4676017148719982
  5.5739503982169998  4.5716769795430006 15.4676017148719982
  8.7590731017830006  4.5716769795430006 15.4676017148719982
  2.3888372499999999  0.2408902620960000 13.1556018965639989
  5.5739503982169998  0.2408902620960000 13.1556018965639989
  8.7590731017830006  0.2408902620960000 13.1556018965639989
  0.7962758982170001  5.5341927379040001 18.0526041034359999
  3.9813986017829999  5.5341927379040001 18.0526041034359999
  7.1665117499999997  5.5341927379040001 18.0526041034359999
  0.7962758982170001  1.2034060204570001 15.7406042851279988
  3.9813986017829999  1.2034060204570001 15.7406042851279988
  7.1665117499999997  1.2034060204570001 15.7406042851279988
  5.5739503982169998  0.7216254962650001 20.8256574920000013
  8.7590731017830006  0.7216254962650001 20.8256574920000013
  2.3888372499999999  2.1659160037350000 18.3256382579999979
  5.5739503982169998  2.1659160037350000 18.3256382579999979
  8.7590731017830006  2.1659160037350000 18.3256382579999979
  0.7962758982170001  3.1284317620960000 20.9106406465639978
