 O Si Au 
 1.0000000000000000
    18.1541673199999991    0.0003963400000000    0.0000389000000000
    -9.0767404299999992   15.7217942399999995    0.0000413600000000
     0.0000163600000000    0.0000295300000000    7.6305892899999996
 O   Si  Au 
  72  36   8
Cartesian
 15.3944569048561366  4.6191559182018525  0.3677256836387575
  6.1403077880439598 11.5614105173165669  0.1836719044304217
  4.4679390925466587  0.3718685375963679  0.1514883577324199
 11.2134692467125010 11.8677270863173820  4.0543649313912802
  2.1677108535301253  4.6619898399551021  4.1289819269638670
 12.7012525585023024  0.3442888697848255  4.1230559294773608
 12.9464327964068122  0.3425511525760734  0.4331257465918318
  2.1654817278733725  4.7771651125753429  0.1309215267943823
 11.0421289621352798 11.7414035716105030  0.3951309296565410
  4.5817683138124803  0.2342541796033375  4.2437579969489567
  6.0870208744821701 11.6539783665773964  4.0748084410578116
 15.0972929623309167  4.6754115206507834  4.0233112177511554
 -2.3726432988892090  7.1644507058681359  7.3129038615569755
  3.5849549864711983 10.8557175984348220  7.3758342007232018
 -2.7222312439650969 14.1604487074339662  7.1824267972863352
 10.6157691214086736  9.3385809895040897  3.4143121715290752
  4.8215398992195917  5.2950352467700830  3.5016114802802893
 10.5971500892292116  1.9480220175578693  3.8035411955710936
  1.8823546543182419 14.3797160943411058  7.1637418809796563
  1.6531280570465567  7.3178863407627537  7.4322423728091609
 -4.5697239733440584 11.0794304681247482  7.2087628568882955
  6.4248162384937029  1.9864217731824292  3.4248120647893190
  6.8265807399359790  9.2986534246593475  3.2607315737246596
 12.5980844046816944  5.7157911089325548  3.8651347145820751
 10.7560650360428944  9.1246933202787979  0.7070276295163939
  4.5906877222994691  5.4505836219678789  0.7447868103172888
 10.9123067033585084  1.7008741107749767  1.1536190915120543
 -2.2462886077500901  7.2483660957311820  4.6201174928787996
  3.5699937220272524 11.0223632634511777  4.6808228457027408
 -2.3726571392503164 14.2058024022719920  4.4768998101973114
  6.4287854893300640  1.9496969272960132  0.7614366921569493
  6.5369866977061326  8.9745808283517423  0.6588001624688455
 13.0552710119236917  5.6995045684170718  1.1308299441304333
  1.6247952794155518 14.1658904997854744  4.5000910196101822
  1.4001437509972094  7.0533156940511583  4.7522445424537185
 -4.4998246457221223 10.8289871470020831  4.5392592067883593
 -0.3407347570129567  5.5890352191848294  0.1567639502396591
  4.2320876839245534 13.4083907045918931  0.2188293132320392
 -5.2209582339887417 13.6065113745451338  0.2822077364716479
  8.6331386014444913 11.1054114782642550  4.2543815932139459
  3.9381858563752239  2.7991252073177719  4.0468103459314611
 13.2544292032816706  2.9638426121586900  4.2979145696093903
  8.6134379267345036 10.6535834707239037  0.0703242642932318
  3.9899388558298399  2.8950533144429804  0.1942137419580701
 13.2116965901242160  2.9736627588804527  0.4848965337246777
 -0.4923909825535103  5.2544938537040897  4.0981614683916678
  4.2608453016226147 13.5157671468013305  4.1471131650996327
 -4.8973444195237565 13.4588434982976501  3.9395752493522873
 -1.9154568797869491  6.3957398648070400  2.1183801165327942
  4.3044288380596853 11.6729066412886375  2.1713708310855959
 -3.4798043558373708 14.6509596096427881  2.0688736553917870
 10.4045153178511214 10.0418484678780064  5.8961414767824243
  4.0019774666451395  4.8131345744167175  5.9142375859304712
 11.6903466053126106  1.7245888090415780  6.1791464146198267
  2.9006632690750194 14.3922539384680626  2.1572083368088979
  1.2067261101014362  6.2845009759016470  2.2241186446241814
 -5.0982797120364651 11.6877439924703435  2.0862431164991033
  5.7675251563800458  1.9177165685661259  5.8888252676215886
  6.7950628711265688  9.8803708682539408  5.8635672893699331
 13.5915235993849617  4.8861392498342537  6.1520845783441729
  6.7238679844578577  4.2944257553971568  1.9641147119600855
 11.6586197191334566  3.7904975341519083  2.3187906085380923
  8.7539870064972121  7.9240875013123828  1.8968528213153877
  1.5646259898596275 11.9901790305264644  6.0666741236577391
 -2.3127380404838696 11.8421558875404802  5.8514029618821688
 -0.3952962849122680  8.5035178849592743  6.2152829964604974
  8.6466652205502026  2.2197646570035432  2.1592800685441942
 11.2341404795761850  7.0615317619237432  2.2687441588106485
  6.3069993338224952  6.9180954858872745  2.2817730371149776
 -0.4024878162407242 13.5825877367391659  6.2620721862816575
 -2.9822350032122529  9.3298113868527572  6.1785694265091262
  2.0075658480123839  9.3787144182490838  5.8400843903457194
 -1.8501812509235827  5.9498497496920102  0.5858296894729853
  4.5768433122938905 11.8434183383328229  0.5755793055076520
 -3.9890868693422195 14.5924372489605911  0.5352246143320556
 10.1733173268544359 10.6103104717341790  4.4070198688074766
  3.7581876404240995  4.4292472805909471  4.3782968471655472
 12.0648844730424791  1.8584439404981126  4.5472066517424699
  3.1963947982088312 14.5929487546601138  0.5616075900540415
  1.1523649557268578  5.9976800042315119  0.5942517796527386
 -5.4740342274443172 12.0041171745975301  0.5092258312144878
  5.1226470671498818  1.7103603657425439  4.3407736913655199
  7.1323277646500545 10.4486751544214513  4.3295939134405517
 13.5753749173447602  4.5410093086679870  4.5832307697081731
 10.2262037911498034 10.4499046699772737  7.4875744073768331
  3.6610197880266173  4.4586461712823588  7.4511519233002579
 12.1913076608560669  1.7555229225378235  0.1416836614896338
 -1.9674657064199277  5.8667632383661479  3.7594901712019624
  4.5555652936139381 11.9522634797503677  3.7983603646738779
 -3.7555848614919585 14.6096464864883266  3.6725238832379152
  5.1716896882828634  1.7855486380561691  7.4070180390184488
  7.0271638651949333 10.2510332267845286  7.4075245727403329
 13.7363008528168766  4.5180984219213025  0.1374427640571053
  3.0555221862830586 14.5455331240920263  3.7563565136053203
  1.0014158418313968  5.7915440089049515  3.7817055295798045
 -5.3843315431302576 11.9484172112230489  3.6772486199484526
  7.0755600942336967  2.7014888317231307  2.0768572893094746
 11.8371378784806165  5.4743582140270348  2.3064434271810432
  7.1060812738446435  8.2776055805712776  2.0019040327107138
  1.2113142243980919 13.5502683649104831  5.9772800270409245
 -3.5614397681109136 10.8390955745617816  5.9010227835122446
  1.1645252545585236  8.0282108259557194  6.0840311154198501
 10.3162961921218947  8.3513849584298114  2.0916913365965710
 10.2834891802063115  2.7540791269361296  2.3209012945788716
  5.5584145634941571  5.4750282703321895  2.0538053540949295
 -1.9296506931562709  8.0375817599940653  6.0291511229286883
 -1.9747833933703700 13.4269841563059877  5.9416604579956198
  2.6895356021550669 10.8334669466292777  6.0225999891932869
  7.4462280591075878  4.5996287671823408  4.5900963820797838
 10.4788186779634582  4.2495478739750974  0.1786567151001179
  8.2926489406059520  3.0980124060193024  6.6647451528999051
 10.6392529778524185  6.6161002920504695  6.7445222174392354
 10.1636614490451151  4.4917513390008450  5.2171714063048844
  8.0908423034300636  5.7108317529099235  7.1078028647201066
  9.3101557535697612  5.0290880269525502  2.6032667479891987
  8.9983300630986722  6.9576029410123148  4.6428186495001640
