 K  V  H  C Cl  O 
 1.0000000000000000
    12.1189730000000004    0.0000000000000000    0.0000000000000000
     6.0594869999999998   18.6757109999999997   -3.4984459999999999
     0.0000000000000000    0.0000000000000000   34.9844620000000006
 K   V   H   C   Cl  O  
  24  23  12   6  72   1
Selective dynamics
Cartesian
 10.0991463948289990  7.7815524752370004 13.9354762805179995   F   F   F
 10.0991405020089999 14.0067832499999998 13.9354658518460006   F   F   F
 10.0991462281620006  1.5563030247630001 13.9354902076360005   F   F   F
  4.0396597281620004  1.5563030247630001 10.4370440076360005   F   F   F
  4.0396598948290006  7.7815524752370004 10.4370300805180012   F   F   F
 16.1586270020089984 14.0067832499999998 10.4370196518460006   F   F   F
 14.1388001051710006 10.8941585247630002 13.9354903076359999   F   F   F
 14.1388002718379990 17.1194079752369994 13.9354763805180006   F   F   F
  2.0198329979910001  4.6689277499999999 13.9354657518460012   F   F   F
  8.0793194979909995  4.6689277499999999 10.4370195518459994   F   F   F
  8.0793136051710004 10.8941585247630002 10.4370441076360017   F   F   F
  8.0793137718379988 17.1194079752369994 10.4370301805180006   F   F   F
 10.0991463948289990  7.7815524752370004 20.9323686805179996   T   T   T
 10.0991405020089999 14.0067832499999998 20.9323582518459972   T   T   T
 10.0991462281620006  1.5563030247630001 20.9323826076359971   T   T   T
  4.0396597281620004  1.5563030247630001 17.4339364076360006   F   F   F
  4.0396598948290006  7.7815524752370004 17.4339224805180031   F   F   F
 16.1586270020089984 14.0067832499999998 17.4339120518459971   F   F   F
 14.1388001051710006 10.8941585247630002 20.9323827076359983   T   T   T
 14.1388002718379990 17.1194079752369994 20.9323687805179972   T   T   T
  2.0198329979910001  4.6689277499999999 20.9323581518459996   T   T   T
  8.0793194979909995  4.6689277499999999 17.4339119518460031   F   F   F
  8.0793136051710004 10.8941585247630002 17.4339365076359982   F   F   F
  8.0793137718379988 17.1194079752369994 17.4339225805179971   F   F   F
 12.1189732500000016  9.3378554999999999 10.4370196018460000   F   F   F
 12.1189673571800007 15.5630862747630001 10.4370441576360005   F   F   F
 12.1189791428200007  3.1126247252370001 10.4370300305180006   F   F   F
  6.0594926428200004  3.1126247252370001 13.9354762305180007   F   F   F
  6.0594867499999996  9.3378554999999999 13.9354658018459983   F   F   F
  6.0594808571800005 15.5630862747630001 13.9354903576360005   F   F   F
 12.1189671071800014  6.2252307747629994 10.4370440576360011   F   F   F
 12.1189793928200000 12.4504802252369995 10.4370301305180000   F   F   F
  0.0000000000000000  0.0000000000000000 17.4339119018460025   F   F   F
  6.0594865000000002  0.0000000000000000 13.9354657018460006   F   F   F
  6.0594806071799994  6.2252307747629994 13.9354902576360011   F   F   F
  6.0594928928199998 12.4504802252369995 13.9354763305180001   F   F   F
 12.1189732500000016  9.3378554999999999 17.4339120018459965   F   F   F
 12.1189673571800007 15.5630862747630001 17.4339365576360024   F   F   F
 12.1189791428200007  3.1126247252370001 17.4339224305180025   F   F   F
  6.0594926428200004  3.1126247252370001 20.9323686305179990   F   F   F
  6.0594867499999996  9.3378554999999999 20.9323582018460002   T   T   T
  6.0594808571800005 15.5630862747630001 20.9323827576359989   T   T   T
 12.1189671071800014  6.2252307747629994 17.4339364576360012   F   F   F
 12.1189793928200000 12.4504802252369995 17.4339225305179966   F   F   F
  6.0594865000000002  0.0000000000000000 20.9323581018459990   F   F   F
  6.0594806071799994  6.2252307747629994 20.9323826576359977   F   F   F
  6.0594928928199998 12.4504802252369995 20.9323687305180002   T   T   T
  8.2215903648269997 11.5155367811549993 23.9814115185460039   T   T   T
  5.5430913476069996 12.9468806236169982 24.3326835199240001   T   T   T
  7.0497039117359996 13.6650924415440009 23.8103060363700010   T   T   T
  7.0499946539309999  9.4385175822900003 24.6042923499819999   T   T   T
  5.5431033956519995 10.2976189640009999 24.8286442155419991   T   T   T
  6.5747007770530006 14.1152517794880001 26.2296775014780010   T   T   T
  8.0923960995949997 13.2499313860140013 25.9998785551180021   T   T   T
  8.0923960291460002 10.6185610575359988 26.4924877394680003   T   T   T
  6.5747976158490005  9.8949893105519990 27.0199274746159972   T   T   T
  6.8552913086150005 12.2362137929340005 27.8584980569359999   T   T   T
  5.4155997276149996 12.0492512501129987 26.8598700855899999   T   T   T
  7.0158009971439999 10.3921927645050012 22.4067258874339998   T   T   T
  7.1248899626240005 11.5135011286560012 23.9999148004760023   T   T   T
  6.6318962371999994 12.8854001830050002 24.4585646104339993   T   T   T
  6.6318961706770008 10.4006715372989991 24.9237039967919998   T   T   T
  7.0027974131550002 13.1576920493850000 25.9125538385320020   T   T   T
  7.0027912871429994 10.6728700251240003 26.3778506549680003   T   T   T
  6.5123001296389997 12.0446009980739994 26.8355873704660013   T   T   T
 11.1626590727499995 10.8941585247630002  8.7806697697840015   F   F   F
 11.1626713583899999 17.1194079752369994  8.7806558426660004   F   F   F
 11.1626649655699985  4.6689277499999999 15.7775376139939993   F   F   F
  5.1031784655700001  4.6689277499999999 12.2790914139940011   F   F   F
  5.1031725727500001 10.8941585247630002 12.2791159697839998   F   F   F
 17.2221578583899984 17.1194079752369994 12.2791020426660005   F   F   F
 13.0752874272500001  7.7815524752370004 12.0934044183700014   F   F   F
 13.0752815344300011 14.0067832499999998 12.0933939896980007   F   F   F
  0.9563021416099999  1.5563030247630001 12.0934183454880007   F   F   F
  7.0157886416100013  1.5563030247630001 15.5918645454879989   F   F   F
  7.0158009272499999  7.7815524752370004 15.5918506183699996   F   F   F
  7.0157950344300000 14.0067832499999998  8.5949477896980007   F   F   F
 11.1626590727499995 10.8941585247630002 12.0934184454880018   F   F   F
 11.1626713583899999 17.1194079752369994 12.0934045183700007   F   F   F
 11.1626649655699985  4.6689277499999999 12.0933938896979996   F   F   F
  5.1031784655700001  4.6689277499999999 15.5918400896979996   F   F   F
  5.1031725727500001 10.8941585247630002  8.5949722454880000   F   F   F
 17.2221578583899984 17.1194079752369994  8.5949583183700007   F   F   F
 13.0752874272500001  7.7815524752370004 15.7775481426659994   F   F   F
 13.0752815344300011 14.0067832499999998  8.7806453139940004   F   F   F
  0.9563021416099999  1.5563030247630001 15.7775620697840004   F   F   F
  7.0157886416100013  1.5563030247630001 12.2791158697840004   F   F   F
  7.0158009272499999  7.7815524752370004 12.2791019426660011   F   F   F
  7.0157950344300000 14.0067832499999998 12.2790915139940005   F   F   F
  7.9721091700129998 10.8941585247630002 13.9354903076359999   F   F   F
  7.9721093366799991 17.1194079752369994 13.9354763805180006   F   F   F
  7.9721029438599995  4.6689277499999999 13.9354657518460012   F   F   F
  1.9126164438600000  4.6689277499999999 10.4370195518459994   F   F   F
 14.0315956700129991 10.8941585247630002 10.4370441076360017   F   F   F
 14.0315958366799993 17.1194079752369994 10.4370301805180006   F   F   F
  4.1468643299870003  7.7815524752370004 13.9354762805179995   F   F   F
 16.2658435561399983 14.0067832499999998 13.9354658518460006   F   F   F
  4.1468641633200001  1.5563030247630001 13.9354902076360005   F   F   F
 10.2063506633200003  1.5563030247630001 10.4370440076360005   F   F   F
 10.2063508299870005  7.7815524752370004 10.4370300805180012   F   F   F
 10.2063570561399999 14.0067832499999998 10.4370196518460006   F   F   F
 11.1626590727499995 10.8941585247630002 15.7775621697840034   F   F   F
 11.1626713583899999 17.1194079752369994 15.7775482426659970   F   F   F
 11.1626649655699985  4.6689277499999999 22.7744300139939995   T   T   T
  5.1031784655700001  4.6689277499999999 19.2759838139939994   F   F   F
  5.1031725727500001 10.8941585247630002 19.2760083697839981   F   F   F
 17.2221578583899984 17.1194079752369994 19.2759944426659970   T   T   T
 13.0752874272500001  7.7815524752370004 19.0902968183700033   F   F   F
 13.0752815344300011 14.0067832499999998 19.0902863896979973   F   F   F
  0.9563021416099999  1.5563030247630001 19.0903107454880008   F   F   F
  7.0157886416100013  1.5563030247630001 22.5887569454879973   T   T   T
  7.0158009272499999  7.7815524752370004 22.5887430183699998   T   T   T
  7.0157950344300000 14.0067832499999998 15.5918401896980008   F   F   F
 11.1626590727499995 10.8941585247630002 19.0903108454879984   F   F   F
 11.1626713583899999 17.1194079752369994 19.0902969183699973   T   T   T
 11.1626649655699985  4.6689277499999999 19.0902862896980032   F   F   F
  5.1031784655700001  4.6689277499999999 22.5887324896979997   T   T   T
  5.1031725727500001 10.8941585247630002 15.5918646454880037   F   F   F
 17.2221578583899984 17.1194079752369994 15.5918507183700008   F   F   F
 13.0752874272500001  7.7815524752370004 22.7744405426659995   T   T   T
 13.0752815344300011 14.0067832499999998 15.7775377139940005   F   F   F
  0.9563021416099999  1.5563030247630001 22.7744544697840006   T   T   T
  7.0157886416100013  1.5563030247630001 19.2760082697839970   F   F   F
  7.0158009272499999  7.7815524752370004 19.2759943426659994   F   F   F
  7.0157950344300000 14.0067832499999998 19.2759839139939970   F   F   F
  7.9721091700129998 10.8941585247630002 20.9323827076359983   T   T   T
  7.9721093366799991 17.1194079752369994 20.9323687805179972   T   T   T
  7.9721029438599995  4.6689277499999999 20.9323581518459996   F   F   F
  1.9126164438600000  4.6689277499999999 17.4339119518460031   F   F   F
 14.0315956700129991 10.8941585247630002 17.4339365076359982   F   F   F
 14.0315958366799993 17.1194079752369994 17.4339225805179971   F   F   F
  4.1468643299870003  7.7815524752370004 20.9323686805179996   T   T   T
 16.2658435561399983 14.0067832499999998 20.9323582518459972   T   T   T
  4.1468641633200001  1.5563030247630001 20.9323826076359971   F   F   F
 10.2063506633200003  1.5563030247630001 17.4339364076360006   F   F   F
 10.2063508299870005  7.7815524752370004 17.4339224805180031   F   F   F
 10.2063570561399999 14.0067832499999998 17.4339120518459971   F   F   F
  6.6779907076160008 11.2647406581360006 22.6713798533619979   T   T   T
