INCAR created by Atomic Simulation Environment
 ENCUT = 400.000000
 POTIM = 0.000000
 SIGMA = 0.200000
 EDIFF = 1.00e-05
 EDIFFG = 0.00e+00
 ALGO = Fast
 GGA = Rp
 PREC = High
 SYSTEM = Mto
 IBRION = -1
 ISIF = 3
 ISMEAR = 1
 ISPIN = 1
 ISTART = 0
 ISYM = 0
 IWAVPR = 11
 NELM = 120
 NPAR = 4
 NSIM = 4
 NSW = 2000
 VOSKOWN = 0
 LCHARG = .FALSE.
 LWAVE = .FALSE.
 INTERACTIVE = .TRUE.
 LREAL = A
