Rb  H  C  N  O 
 1.0000000000000000
     8.6513969999999993    0.0000000000000000    0.0995170000000000
     0.0504100000000000   17.2745670000000011    4.3769780000000003
     0.0000000000000000    0.0000000000000000   34.6078770000000020
 Rb  H   C   N   O  
  24   6  13  20   1
Selective dynamics
Cartesian
  3.2525846548919999  7.4254035266820004 20.3057567562400010   F   F   F
  7.5782831548919996  7.4254035266820004 20.3555152562400004   F   F   F
  3.2525846548919999  7.4254035266820004 15.9797721312400007   F   F   F
  7.5782831548919996  7.4254035266820004 16.0295306312400001   F   F   F
  0.3519852221609999  1.6672202848710000 17.3715868374459994   F   F   F
  4.6776837221610004  1.6672202848710000 17.4213453374459988   F   F   F
  0.3519852221609999  1.6672202848710000 21.6975714624459997   T   T   T
  4.6776837221610004  1.6672202848710000 21.7473299624459990   T   T   T
  1.8274942894299999 13.1836040430600008 18.8641880265289998   F   F   F
  6.1531927894299994 13.1836040430600008 18.9139465265290028   F   F   F
  1.8274942894299999 13.1836040430600008 23.1901726515290001   T   T   T
  6.1531927894299994 13.1836040430600008 23.2399311515290030   T   T   T
  1.1235238451079999  9.8491634733180007 18.1520472578010015   F   F   F
  5.4492223451079997  9.8491634733180007 18.2018057578010009   F   F   F
  1.1235238451079999  9.8491634733180007 22.4780318828010017   T   T   T
  5.4492223451079997  9.8491634733180007 22.5277903828010011   T   T   T
  2.5486142105700003  4.0909629569400003 15.2676659703890003   F   F   F
  6.8743127105699990  4.0909629569400003 15.3174244703889997   F   F   F
  2.5486142105700003  4.0909629569400003 19.5936505953890006   F   F   F
  6.8743127105699990  4.0909629569400003 19.6434090953890035   F   F   F
  4.0241232778389993 15.6073467151290011 25.4122018015950033   T   T   T
  8.3498217778389989 15.6073467151290011 25.4619603015950027   T   T   T
  4.0241232778389993 15.6073467151290011 21.0862171765950031   F   F   F
  8.3498217778389989 15.6073467151290011 21.1359756765950024   F   F   F
  0.1080989383890000  6.1012043187300007 24.8982970536060009   T   T   T
  0.9717788583080000  5.0762178857849998 26.0769985016600003   T   T   T
 -0.7818115632149999  5.0006762042940007 25.9925949022620024   T   T   T
  1.0896292781259997  2.4321035624970002 25.5176383748640028   T   T   T
 -0.6673072436609999  2.4313607561160002 25.5109794801020016   T   T   T
  0.2228577195240000  1.8906840835830001 24.0564071357189988   T   T   T
  3.6383583172689997 11.5163837581890007 20.6959892046650005   F   F   F
  7.9640568172690003 11.5163837581890007 20.7457477046649998   F   F   F
  0.7377501827310000  5.7581832418110004 17.7618148093760020   F   F   F
  5.0634486827309990  5.7581832418110004 17.8115733093760014   F   F   F
  0.7377501827310000  5.7581832418110004 22.0877994343759987   T   T   T
  5.0634486827309990  5.7581832418110004 22.1375579343759981   T   T   T
  2.1628492499999998  0.0000000000000000 14.8774379984590013   F   F   F
  6.4885477499999995  0.0000000000000000 14.9271964984590024   F   F   F
  2.1628492499999998  0.0000000000000000 19.2034226234590015   F   F   F
  6.4885477499999995  0.0000000000000000 19.2531811234590009   F   F   F
  0.1220533681960000  5.1286980203310009 25.3879467742880003   T   T   T
  0.2316808717210000  4.0218474143730001 24.3564884549550023   T   T   T
  0.2125024340920000  2.5993904693250003 24.8825169183570019   T   T   T
  1.1125057093469999  6.8828093772120003 18.1409189256250016   F   F   F
  5.4382042093469991  6.8828093772120003 18.1906774256250010   F   F   F
  1.1125057093469999  6.8828093772120003 22.4669035506250019   T   T   T
  5.4382042093469991  6.8828093772120003 22.5166620506250013   T   T   T
  2.5376047262059998  1.1246088608339999 15.2565031298529998   F   F   F
  6.8633032262059999  1.1246088608339999 15.3062616298530010   F   F   F
  2.5376047262059998  1.1246088608339999 19.5824877548530019   F   F   F
  6.8633032262059999  1.1246088608339999 19.6322462548530012   F   F   F
  4.0131051420779995 12.6409926190230006 21.0750888444189997   F   F   F
  8.3388036420780001 12.6409926190230006 21.1248473444190026   F   F   F
  3.2636027906529996 10.3917576227880009 20.3168850884160008   F   F   F
  7.5893012906529993 10.3917576227880009 20.3666435884160002   F   F   F
  0.3630033579220000  4.6335743809770005 17.3827497774990007   F   F   F
  4.6887018579219992  4.6335743809770005 17.4325082774990037   F   F   F
  0.3630033579220000  4.6335743809770005 21.7087344024990045   T   T   T
  4.6887018579219992  4.6335743809770005 21.7584929024990039   T   T   T
  1.8385037737939998 16.1499581391659994 18.8753162591880006   F   F   F
  6.1642022737939994 16.1499581391659994 18.9250747591880000   F   F   F
  1.8385037737939998 16.1499581391659994 23.2013008841880009   F   F   F
  6.1642022737939994 16.1499581391659994 23.2510593841880002   F   F   F
  0.3462780883190000  4.2652287888359997 23.1627152944070005   T   T   T
