KPOINTS created by Atomic Simulation Environment
0
Monkhorst-Pack
3 4 1 
0 0 0
