La Ga Cu  H  C  O 
 1.0000000000000000
    10.2276310000000006    0.0000000000000000    0.0000000000000000
    -0.0000000000000000    9.1763879999999993    3.0587960000000001
     0.0000000000000000    0.0000000000000000   36.7055539999999993
 La  Ga  Cu  H   C   O  
  11  28  16  10   6   1
Selective dynamics
Cartesian
  7.7227818917900004  4.5881939999999997 16.3135876290120017   F   F   F
  7.7227818917900004  7.6469869412039992 19.3723623285500004   F   F   F
  2.5048491082100002  7.6469869412039992 16.3135783970679995   F   F   F
  2.5048491082100002  4.5881939999999997 19.3723715604939990   F   F   F
  2.5048491082100002  1.5294010587960001 16.3135968609560003   F   F   F
  7.7227818917900004  4.5881939999999997 22.4311554919759963   F   F   F
  7.7227818917900004  1.5294010587960001 19.3723807924380012   F   F   F
  7.7227818917900004  7.6469869412039992 25.4899668970680011   T   T   T
  2.5048491082100002  7.6469869412039992 22.4311829655860002   F   F   F
  2.5048491082100002  4.5881939999999997 25.4899761290119997   T   T   T
  2.5048491082100002  1.5294010587960001 22.4311647239200020   T   T   T
  6.5032493989810005  7.6469869412039992 16.3135783970679995   F   F   F
  6.5032493989810005  4.5881939999999997 19.3723715604939990   F   F   F
  6.5032493989810005  1.5294010587960001 16.3135968609560003   F   F   F
  1.1946179836930002  4.5881939999999997 16.3135876290120017   F   F   F
  1.1946179836930002  7.6469869412039992 19.3723623285500004   F   F   F
  3.7243816010190001  4.5881939999999997 16.3135876290120017   F   F   F
  3.7243816010190001  7.6469869412039992 19.3723623285500004   F   F   F
  9.0330130163070006  7.6469869412039992 16.3135783970679995   F   F   F
  9.0330130163070006  4.5881939999999997 19.3723715604939990   F   F   F
  9.0330130163070006  1.5294010587960001 16.3135968609560003   F   F   F
  5.1138155000000003  6.1175950587959997 17.8429948609560007   F   F   F
  5.1138155000000003  3.0587929412039996 14.7841803970679990   F   F   F
  5.1138155000000003  0.0000000000000000 17.8429735604939985   F   F   F
  6.5032493989810005  7.6469869412039992 22.4311829655860002   F   F   F
  6.5032493989810005  4.5881939999999997 25.4899761290119997   T   T   T
  6.5032493989810005  1.5294010587960001 22.4311647239200020   T   T   T
  1.1946179836930002  4.5881939999999997 22.4311554919759963   F   F   F
  1.1946179836930002  1.5294010587960001 19.3723807924380012   F   F   F
  1.1946179836930002  7.6469869412039992 25.4899668970680011   T   T   T
  3.7243816010190001  4.5881939999999997 22.4311554919759963   F   F   F
  3.7243816010190001  1.5294010587960001 19.3723807924380012   F   F   F
  3.7243816010190001  7.6469869412039992 25.4899668970680011   T   T   T
  9.0330130163070006  7.6469869412039992 22.4311829655860002   F   F   F
  9.0330130163070006  4.5881939999999997 25.4899761290119997   T   T   T
  9.0330130163070006  1.5294010587960001 22.4311647239200020   T   T   T
  5.1138155000000003  6.1175950587959997 23.9605627239199990   F   F   F
  5.1138155000000003  3.0587929412039996 20.9017849655859997   F   F   F
  5.1138155000000003  0.0000000000000000 23.9605781290119992   T   T   T
  0.0000000000000000  3.0587929412039996 17.8429643285499999   F   F   F
  0.0000000000000000  0.0000000000000000 14.7841896290120012   F   F   F
  5.1138155000000003  3.0587929412039996 17.8429643285499999   F   F   F
  5.1138155000000003  0.0000000000000000 14.7841896290120012   F   F   F
  0.0000000000000000  6.1175950587959997 17.8429948609560007   F   F   F
  0.0000000000000000  3.0587929412039996 14.7841803970679990   F   F   F
  0.0000000000000000  0.0000000000000000 17.8429735604939985   F   F   F
  0.0000000000000000  6.1175950587959997 20.9017787924380016   F   F   F
  0.0000000000000000  3.0587929412039996 23.9605688970680006   T   T   T
  0.0000000000000000  0.0000000000000000 20.9017574919759994   F   F   F
  5.1138155000000003  6.1175950587959997 20.9017787924380016   F   F   F
  5.1138155000000003  3.0587929412039996 23.9605688970680006   T   T   T
  5.1138155000000003  0.0000000000000000 20.9017574919759994   F   F   F
  0.0000000000000000  6.1175950587959997 23.9605627239199990   F   F   F
  0.0000000000000000  3.0587929412039996 20.9017849655859997   F   F   F
  0.0000000000000000  0.0000000000000000 23.9605781290119992   T   T   T
 -0.6981483196910001  4.2681032337839993 28.6722069620019973   T   T   T
  0.8084430923950001  5.1495870650639990 28.5642192061240010   T   T   T
  0.8087499213250001  1.0690767311639999 27.2063982502799995   T   T   T
 -0.6981483196910001  1.7112128342399999 27.8196165177219967   T   T   T
  0.3334514534930000  4.3685296240559994 30.8978849325219969   T   T   T
  1.8511500728450001  3.7236222518039996 30.2768789700900030   T   T   T
  1.8511500728450001  1.1839926380879999 29.4300421210860002   T   T   T
  0.3335435021720000  0.2953604005560000 29.5398682135899975   T   T   T
  0.6140465099780000  1.9350341139479998 31.4096246341999965   T   T   T
 -0.8256561953679999  2.2564187508719997 30.4457948974499999   T   T   T
  0.8836468631380001  3.1765443520199996 27.6853873389259988   T   T   T
  0.3906443660450000  4.1532423851879994 28.7524055407819965   T   T   T
  0.3906443660450000  1.7551677327599999 27.9527536788739965   T   T   T
  0.7615494042600001  3.6853567138439995 30.1557689953619992   T   T   T
  0.7615494042600001  1.2871444155959999 29.3561446626220004   T   T   T
  0.2710424491310000  2.2641360931799999 30.4223064015459990   T   T   T
  0.4367505265930000  3.6040539161639997 26.4032011540179994   T   T   T
