 O Si Au 
 1.0000000000000000
    18.1541673199999991    0.0003963400000000    0.0000389000000000
    -9.0767404299999992   15.7217942399999995    0.0000413600000000
     0.0000163600000000    0.0000295300000000    7.6305892899999996
 O   Si  Au 
  72  36   8
Cartesian
 15.1567804838800573  4.5395814595510240  0.2583181641139772
  5.9585856477827601 11.4498600730587867  0.2542357211229127
  4.5255362145407254  0.1849259280147720  0.2065394838871792
 11.1706667430387441 11.6985405249185330  3.9708024413541141
  2.0963908253963521  4.5783766382958770  3.9548087481619825
 12.7109132706065715  0.1478957697893893  4.2045785752024427
 12.7408051864526524  0.2366163641999935  0.3328268282164575
  1.9971838830686950  4.3578660951776129  0.1244449894166163
 11.1667987032047247 11.7465556488367326  0.2961202764621693
  4.4890725362769865  0.1908109616142126  3.9408983968005642
  6.1736659370080176 11.4871028539927771  4.0111493322856466
 15.1175202366080264  4.6787416035542062  4.1549456541401550
 -2.4495793291045787  7.1089462938509547  7.2286899331435963
  3.4710285333902275 10.6630962746764677  7.4008239256638362
 -2.5420906997333983 14.3790841806225025  7.2892754317405712
 10.5331490230858265  9.0608982182805224  3.4340126441952830
  4.7670547755995569  5.2736254156382332  3.5410583751206355
 10.7437621370698313  1.7369026719793796  3.5782222108097250
  1.7306033212648535 14.1842151507378489  7.2854814340718086
  1.5386109262053245  6.8747341935694344  7.0720832375513680
 -4.5422321709840174 10.7836091478449507  7.2755874203862154
  6.2190244350692199  2.1851342045873907  3.3181842927203671
  6.9973307381599223  8.8946092173686946  3.5548151194029991
 12.6803483243468325  5.5183760429869846  3.6901574658119993
 10.5866182086266853  9.1505333808582918  0.6531745587835723
  4.4028815117036899  5.3446294431261068  0.8554155025204611
 10.6510520294113338  1.7631011250062012  0.9204427670543989
 -2.3392635636392214  7.1739741306461529  4.5206589894571030
  3.7188442557357435 10.8315816610684603  4.7500675827558165
 -2.6371450367260834 14.2991776531970967  4.7043481659807131
  6.5363127017014699  1.9401011524364424  0.5574677236495755
  6.7899901967415826  9.1035394833305237  0.8857024988327818
 12.9312272170164562  5.4582484989546689  1.0046050633038621
  1.8587201606194284 14.0081044963366157  4.5796729969629899
  1.6728185529134776  7.1538884214616303  4.3329222765966282
 -4.5015113511962017 10.9613091101684823  4.7152055375888260
 -0.5138171443111766  5.2954950019835509  0.1767494754750264
  4.1472765903917379 13.2867110557373866  0.2310804876545106
 -4.9608014742704318 13.3448980779658299  0.3249832973156225
  8.6879101960700496 10.8172097312500668  4.0220820319774617
  3.8522169147224781  2.6970328825705896  4.1674856288286692
 13.1370838870784645  2.8785372568004841  4.4251397191343420
  8.5696114068614762 10.8302281512588436  0.1345107763165418
  4.0784392900879043  2.7401946727662225  0.1002512480873422
 13.1110251691308601  2.8790302378645212  0.2500952415742903
 -0.4430347179720195  5.3458248942003985  4.0080639732725336
  4.2747528003517594 13.3128141809543461  4.1178069791412595
 -5.0774802932313721 13.3446483588471310  4.0162730610269541
 -2.1351737537200584  6.1856137398505551  2.1069939938082642
  4.1958326360707865 11.4052208074784787  2.2437837791032185
 -3.3256235707313730 14.4682450991598888  2.1436039894022012
 10.4137260198694719 10.0464877515815871  5.9352996384381091
  3.9757802484274736  4.7444921364753725  5.9647819825366692
 11.5973499786773395  1.6977294357860344  6.1146895317641290
  2.6493337789292468 14.3425450568631820  2.1455683629610891
  1.1407445195148789  6.1539608060232798  1.9881700288200559
 -5.0402141527393223 11.3029338638697361  2.1094365311226255
  5.7116994966411365  1.6290236933518354  5.8405021038315477
  6.9720620925546832  9.8353126533431894  5.9805480908424542
 13.2115789170705238  4.9619472058758340  6.1339373715355938
  6.6257552329651697  4.2798369443997251  1.7708853379467360
 11.7542690284389924  3.6858581321260839  2.2384372513029969
  8.7370925276664764  7.7969025465726904  1.9081802845223872
  1.5557388768367177 11.8603283872290053  5.9858075930173467
 -2.4647203820093839 11.9364596069172464  6.1567162319980824
 -0.4083774009815769  8.2617665519730608  5.8639648189082099
  8.6029493334535587  2.3371325663637821  2.2264599843250243
 11.3586678869288988  7.0599081832672237  1.9400044398498200
  6.1156382732136469  6.8863337574494334  1.9794735086061579
 -0.4220425659931761 13.5878319343208780  5.9176951237546529
 -2.8105751171156057  9.3320583413915195  5.8923769974118319
  2.0088217454132336  9.2017729444797496  5.9446203401477486
 -2.0077406295035352  5.8071725762537270  0.5164154658253562
  4.3985933005325863 11.6889783585060911  0.6419831480009786
 -3.8432964577812379 14.5026557183681835  0.6084868592063499
 10.1989819457354436 10.3983228766209947  4.3555445220329885
  3.6630925513517560  4.3179812298982041  4.4432091020022506
 12.0342961787269704  1.6120047412115388  4.5281212239907340
  3.0526891796237501 14.4737734156271376  0.5691225701163267
  1.0555850731727610  5.6697389060483596  0.4117581224003080
 -5.3631895790815447 11.7842181667577464  0.5998025259381066
  5.0584368168353917  1.6636200963076684  4.2854363394726231
  7.1651939910799660 10.2293745107263216  4.4093463761826097
 13.5200658786648873  4.4695122078838319  4.6301585751020804
 10.1732421293731647 10.4779898496097292  7.4720129602563850
  3.6287647536507079  4.3198051296447959  7.5191162892327856
 12.0175565149666710  1.6589558225287726  0.0379195681331302
 -2.0209586685618501  5.8368038641661917  3.6912030340937898
  4.6185364516812566 11.7956149263069818  3.8173724989101210
 -3.9059973517433892 14.4993366245584419  3.7186008292544956
  5.1411792636902724  1.6251337600688709  7.3532989202646766
  7.0661999100457749 10.3211503542998724  7.5197000841648336
 13.6078303268713814  4.4637542364888914  0.0043598414970312
  3.1223376345366951 14.3814103141092478  3.7075376482660825
  1.0660833924757582  5.7922862628050575  3.5842079356942240
 -5.3113709406523331 11.7889819831164342  3.6930620980861537
  7.0457004419347014  2.7268967007929352  1.9683691914559742
 11.8027219063811923  5.4488415711810578  2.2145624134361657
  7.1600417065530859  8.1511043605868068  2.0972252856833857
  1.1693618988155807 13.4646706408991061  5.8979194935096189
 -3.5453842933956272 10.7195405649105222  6.0269151750642349
  1.1530152545048162  7.8648289085464427  5.7644886205765831
 10.2766435440612529  8.2499242327422593  2.0037496148403804
 10.2956541832176072  2.7185746179669752  2.2103063217775860
  5.5173196690800674  5.4173624912134608  2.0756595848705848
 -2.0107829295334008  7.9557673987425135  5.8922543507174927
 -2.0044722136026945 13.5463899844646480  6.0197826767557601
  2.6587179922904500 10.6547337759278591  5.9782402508353778
  7.4718403459375518  5.0790568439232091  4.5038621783999888
 10.0709252578200523  4.4421513557850103  0.4371169305619766
  7.9925039448513902  3.2739600542844660  6.3270287381827348
 10.9234692374165832  6.6972890882417317  6.8360035284266703
 10.1199503993053330  4.4647542829549556  5.4542581195109161
  8.2132308085012671  6.0753419427455109  6.9560711844473779
  9.5270529380508293  4.8432066232950248  2.9710421263013189
  9.4365535036085362  7.0087516903376228  4.6280769536533031
