 H  C  O Al Si 
 1.0000000000000000
    18.2560000000000002    0.0000000000000000    0.0000000000000000
     0.0000000000000000   20.5339999999999989    0.0000000000000000
     0.0000000000000000    0.0000000000000000   15.0839999999999996
 H   C   O   Al  Si 
   9   7 192   1  95
Cartesian
 11.5633700000000008  9.3724799999999995 11.8425100000000008
 11.4590700000000005 10.6284200000000002 14.0461600000000004
  9.3903199999999991  9.4002599999999994 14.7926400000000005
  7.0244700000000000 10.9451800000000006 13.9678100000000001
  6.9541899999999996  9.7704100000000000 11.5342500000000001
  8.3972499999999997  8.9586799999999993  9.5225899999999992
  9.2121200000000005  7.5066600000000001 10.3550000000000004
 10.2540800000000001  8.8596199999999996  9.6138499999999993
  9.2340300000000006 11.2130200000000002  0.0808800000000000
  9.2562099999999994  9.3830299999999998 11.5035000000000007
 10.5625000000000000  9.7720900000000004 12.2142199999999992
 10.5017600000000009 10.7158499999999997 13.4334299999999995
  9.2764000000000006 10.4364899999999992 14.3313400000000009
  7.9603099999999998 10.4671400000000006 13.5259000000000000
  7.9328500000000002  9.8661799999999999 12.1109899999999993
  9.2814999999999994  8.6279800000000009 10.1615500000000001
  2.2668499999999998  8.4218100000000007  3.1940400000000002
  2.2557100000000001  3.9874999999999998  3.1905700000000001
  4.3429200000000003  2.5049399999999999  7.4872500000000004
 11.3588799999999992 18.7142799999999987  3.2276699999999998
 11.3517600000000005 14.2220499999999994  3.2133400000000001
 13.4548500000000004 12.7629099999999998  7.4570800000000004
 16.0214700000000008 12.0998599999999996  7.0045599999999997
 16.0300499999999992 16.5820299999999996  6.9888700000000004
 13.9207500000000000 18.0411700000000010  3.6827600000000000
  6.9000399999999997  1.8273200000000001  7.0034999999999998
  6.9248700000000003  6.3084600000000002  6.9846500000000002
  4.8046100000000003  7.7832100000000004  3.7990599999999999
 16.0692999999999984  8.4655500000000004  0.5241700000000000
 16.0990499999999983  3.8833899999999999  0.5395500000000000
 13.9285999999999994  2.4961099999999998  3.8666299999999998
  6.8910900000000002 18.7074999999999996  0.5324700000000000
  6.9005900000000002 14.2236999999999991  0.5531300000000000
  4.7993199999999998 12.7645499999999998  3.8596900000000001
  2.2358099999999999 12.0953499999999998  4.3128200000000003
  2.2246800000000002 16.5877799999999986  4.3292599999999997
  4.3315999999999999 18.0290600000000012  0.0793400000000000
 11.3665500000000002  1.8211599999999999  4.3116099999999999
 11.3484800000000003  6.2971599999999999  4.3221699999999998
 13.5048800000000000  7.7745800000000003  0.1339500000000000
 16.0189100000000018 12.0918600000000005  4.3144799999999996
 16.0280400000000007 16.5857199999999985  4.3300099999999997
 13.9211100000000005 18.0354199999999985  0.0861300000000000
  6.9005900000000002  1.8221900000000000  4.3120599999999998
  6.9250499999999997  6.3111199999999998  4.3257899999999996
  4.6802900000000003  7.7858799999999997  0.2295800000000000
  2.1328499999999999  8.5062099999999994  0.5033500000000000
  2.2106200000000000  3.8975599999999999  0.5451400000000000
  4.3458399999999999  2.5045299999999999  3.8302800000000001
 11.3607099999999992 18.7101700000000015  0.5366900000000000
 11.3481100000000001 14.2241099999999996  0.5528300000000000
 13.4566800000000004 12.7624999999999993  3.8599999999999999
  2.2327100000000000 12.1043800000000008  7.0051600000000001
  2.2226699999999999 16.5830500000000001  6.9879600000000002
  4.3314199999999996 18.0440499999999986  3.6774800000000001
 11.3680099999999999  1.8287599999999999  7.0059100000000001
 11.3464700000000001  6.2942900000000002  6.9909800000000004
 13.4307599999999994  7.7842300000000000  3.7228800000000000
 15.9865999999999993  8.4101099999999995  3.2163599999999999
 16.0276700000000005  3.9478700000000000  3.1967500000000002
 13.9320699999999995  2.4971399999999999  7.4536100000000003
  6.8934699999999998 18.7126300000000008  3.2257099999999999
  6.9022300000000003 14.2243099999999991  3.2130399999999999
  4.8002300000000000 12.7664000000000009  7.4554200000000002
  4.5459300000000002  5.1509499999999999  3.9539700000000000
 13.6940100000000005 15.3937200000000001  0.0028700000000000
 13.7995300000000007  5.1357600000000003  0.0618400000000000
  4.5618100000000004 15.4029600000000002  3.7762799999999999
 13.6908999999999992 15.4021399999999993  3.7738700000000001
  4.5123400000000000  5.1491100000000003  0.0055800000000000
  4.5501300000000002 15.3887999999999998 15.0835500000000007
 13.7149999999999999  5.1454100000000000  3.8216800000000002
 18.2444999999999986  8.1655499999999996  1.9529300000000001
  0.0158800000000000  4.2375999999999996  1.9188400000000001
  9.1258099999999995 18.4896299999999982  1.8788600000000000
  9.1256299999999992 14.4604499999999998  1.8835400000000000
 18.2554499999999997 12.3140300000000007  5.6552899999999999
 18.2539900000000017 16.3493800000000000  5.6572500000000003
  9.1358499999999996  2.0240399999999998  5.6578600000000003
  9.1387699999999992  6.0815500000000000  5.6560499999999996
  1.8294299999999999  6.2137900000000004  1.8026899999999999
 10.9012100000000007 16.4785399999999989  1.8871599999999999
 16.4826100000000011 14.3284199999999995  5.6533300000000004
  7.3772500000000001  4.0509500000000003  5.6531799999999999
 16.4309499999999993  6.1909999999999998  1.8330100000000000
  7.3489500000000003 16.4777099999999983  1.8833899999999999
  1.7706500000000001 14.3300599999999996  5.6510699999999998
 10.8968200000000000  4.0480700000000001  5.6525800000000004
  2.9806599999999999  3.8564900000000000  5.6566500000000000
  3.0936599999999999  8.6778700000000004  5.6566500000000000
 12.2043199999999992 14.2676400000000001  5.6557500000000003
 12.3091100000000004 18.8553500000000014  5.6562000000000001
 15.1723800000000004 16.5339799999999997  1.8886700000000001
 15.0681399999999996 11.9493500000000008  1.8867100000000001
  5.9284499999999998  6.2119499999999999  1.9541299999999999
  5.9578499999999996  1.6704399999999999  1.8849000000000000
 15.2260500000000008  3.9661400000000002  5.6555900000000001
 15.0847499999999997  8.6138100000000009  5.6555900000000001
  6.0533200000000003 14.2694899999999993  5.6551400000000003
  5.9390400000000003 18.8483599999999996  5.6558999999999999
  3.0792400000000000 16.5325400000000009  1.8880600000000001
  3.1858499999999998 11.9657800000000005  1.8823300000000001
 12.2466699999999999  6.2454200000000002  1.9020900000000001
 12.3302800000000001  1.6821500000000000  1.8883700000000001
  4.1063200000000002 10.2731600000000007  3.7485200000000001
 13.2379700000000007 20.5331800000000015  3.7740200000000002
 14.1693899999999999 10.2704900000000006 15.0761599999999998
  4.9972099999999999 20.5245500000000014  0.0232300000000000
 14.1463900000000002 10.2692599999999992  3.7630100000000000
  5.0253300000000003  0.0028700000000000  3.7735599999999998
  4.0614100000000004 10.2817799999999995 15.0570000000000004
 13.2465499999999992 20.5282499999999999  0.0090500000000000
  2.1293799999999998  8.5107300000000006 10.8122100000000003
  2.2159100000000000  3.8996100000000000 10.7657500000000006
  4.3672000000000004  2.5037099999999999 14.9865600000000008
 11.3612599999999997 18.7175599999999989 10.7726900000000008
 11.3506699999999991 14.2204099999999993 10.7567000000000004
 13.4482800000000005 12.7551000000000005 15.0022400000000005
 16.0196399999999990 12.1181400000000004 14.5477600000000002
 16.0269399999999997 16.5857199999999985 14.5326799999999992
 13.9170999999999996 18.0325500000000005 11.2256599999999995
  6.9109900000000000  1.7560700000000000 14.5436899999999998
  6.8180699999999996  6.4283700000000001 14.5991999999999997
  4.6762699999999997  7.7834099999999999 11.0800999999999998
 15.9842200000000005  8.4041599999999992  8.0945300000000007
 16.0307800000000000  3.9534099999999999  8.1127800000000008
 13.9386399999999995  2.4872800000000002 11.4050100000000008
  6.8941999999999997 18.7052399999999999  8.0824599999999993
  6.9033199999999999 14.2288300000000003  8.0958799999999993
  4.8042499999999997 12.7536699999999996 11.4092400000000005
  2.2255900000000000 12.1273800000000005 11.8527100000000001
  2.2188300000000001 16.5951699999999995 11.8685399999999994
  4.3281299999999998 18.0442500000000017  7.6328100000000001
 11.3800600000000003  1.8090500000000000 11.8557199999999998
 11.4605700000000006  6.2638999999999996 11.8720099999999995
 13.4263800000000000  7.7869000000000002  7.5865000000000000
 16.0159899999999986 12.1084899999999998 11.8552700000000009
 16.0267599999999995 16.5900299999999987 11.8686900000000009
 13.9236699999999995 18.0415799999999997  7.6273799999999996
  6.9108099999999997  1.7480599999999999 11.8590400000000002
  6.8235500000000000  6.4371999999999998 11.7931200000000000
  4.8091799999999996  7.7862900000000002  7.5101699999999996
  2.2703199999999999  8.4205799999999993  8.1215299999999999
  2.2547999999999999  3.9936600000000002  8.1216799999999996
  4.3693900000000001  2.5039199999999999 11.4131599999999995
 11.3577899999999996 18.7077099999999987  8.0817099999999993
 11.3504900000000006 14.2259600000000006  8.0963399999999996
 13.4490099999999995 12.7532599999999992 11.4003399999999999
  2.2217600000000002 12.1374399999999998 14.5510800000000007
  2.2179199999999999 16.5894200000000005 14.5332799999999995
  4.3336100000000002 18.0288499999999985 11.2301900000000003
 11.3769600000000004  1.8172600000000001 14.5474599999999992
 11.4627599999999994  6.2591700000000001 14.5261899999999997
 13.5072500000000009  7.7702700000000000 11.1767900000000004
 16.0680200000000006  8.4690399999999997 10.7864199999999997
 16.0966799999999992  3.8835999999999999 10.7695200000000000
 13.9384599999999992  2.4893399999999999 14.9930400000000006
  6.8903600000000003 18.7155099999999983 10.7743500000000001
  6.9000399999999997 14.2195900000000002 10.7558000000000007
  4.8053400000000002 12.7540800000000001 14.9895700000000005
  4.5214600000000003  5.1474599999999997 11.3099799999999995
 13.6903600000000001 15.4027600000000007  7.5385299999999997
 13.7151899999999998  5.1464400000000001  7.4881500000000001
  4.5510400000000004 15.3898200000000003 11.3135999999999992
 13.6954700000000003 15.3922899999999991 11.3116400000000006
  4.5446499999999999  5.1530100000000001  7.3597900000000003
  4.5623600000000000 15.4052199999999999  7.5352100000000002
 13.7931399999999993  5.1316499999999996 11.2478400000000001
 18.2446799999999989  8.1688399999999994  9.3566099999999999
  0.0175300000000000  4.2351400000000003  9.3973300000000002
  9.1261700000000001 18.4888100000000009  9.4348899999999993
  9.1261700000000001 14.4602500000000003  9.4282500000000002
 18.2488799999999998 12.3154699999999995 13.1959400000000002
 18.2497900000000008 16.3791499999999992 13.2003100000000000
  9.1422399999999993  2.0106899999999999 13.1990999999999996
  9.2298700000000000  6.1431600000000000 13.2006099999999993
  1.8274300000000001  6.2158499999999997  9.5193600000000007
 10.9017499999999998 16.4783299999999997  9.4345900000000000
 16.4910099999999993 14.3411500000000007 13.1939700000000002
  7.3464000000000000  3.9998200000000002 13.1926199999999998
 16.4351500000000001  6.1920299999999999  9.4843700000000002
  7.3491400000000002 16.4777099999999983  9.4365500000000004
  1.7449100000000000 14.3487500000000008 13.1930700000000005
 10.8918900000000001  4.0378100000000003 13.1941299999999995
  3.0741299999999998  3.9848300000000001 13.1974400000000003
  3.2218200000000001  8.5337300000000003 13.1977499999999992
 12.2090700000000005 14.2655899999999995 13.1981999999999999
 12.3175100000000004 18.8684900000000013 13.1980500000000003
 15.1727399999999992 16.5339799999999997  9.4268999999999998
 15.0674100000000006 11.9497599999999995  9.4293099999999992
  5.9297300000000002  6.2140000000000004  9.3575099999999996
  5.9585800000000004  1.6690000000000000  9.4309700000000003
 15.1893600000000006  3.9961199999999999 13.1965400000000006
 15.0639400000000006  8.5729399999999991 13.1977499999999992
  6.0482100000000001 14.2754399999999997 13.1972900000000006
  5.9326499999999998 18.8812199999999990 13.1968399999999999
  3.0792400000000000 16.5317200000000000  9.4271999999999991
  3.1851200000000000 11.9663900000000005  9.4318700000000000
 12.2463099999999994  6.2452100000000002  9.4089500000000008
 12.3299199999999995  1.6786500000000000  9.4270499999999995
  4.0676199999999998 10.2795299999999994 11.3356300000000001
 13.2531300000000005 20.5268100000000011 11.3039500000000004
 14.1520499999999991 10.2708999999999993  7.5498399999999997
  5.0295300000000003  0.0028700000000000  7.5386800000000003
 14.1609999999999996 10.2676200000000009 11.3197899999999994
  4.9935600000000004 20.5253799999999984 11.2923299999999998
  4.1021200000000002 10.2768599999999992  7.5634199999999998
 13.2345000000000006 20.5329699999999988  7.5376300000000001
  7.5610900000000001  5.7324799999999998 13.1953300000000002
  5.5552999999999999  1.4891300000000001  0.3232500000000000
  5.4833699999999999  6.3885399999999999  0.4062100000000000
 14.6796500000000005 11.7795299999999994  0.3176700000000000
 14.6844000000000001 16.6327500000000015  0.3473800000000000
 12.7017900000000008 19.0300900000000013  4.0883700000000003
 12.6939399999999996 14.1676400000000005  4.1141600000000000
  3.5624799999999999  8.7817799999999995  4.1010400000000002
  3.5528000000000000  3.8796900000000001  4.1405599999999998
 12.7127499999999998  1.5051399999999999  3.4586100000000002
 12.7070900000000009  6.3628700000000000  3.4507699999999999
  3.5769000000000002 11.7820000000000000  3.4489600000000000
  3.5675900000000000 16.6382900000000014  3.4295000000000000
  5.5509199999999996 19.0278300000000016  7.2247800000000000
  5.5615100000000002 14.1717499999999994  7.1953699999999996
 14.6659600000000001  8.7641200000000001  7.2195000000000000
 14.7063000000000006  3.8948900000000002  7.1893399999999996
 12.7016100000000005 19.0280400000000007  7.2246300000000003
 12.6934000000000005 14.1682500000000005  7.1968800000000002
  3.5641200000000000  8.7830100000000009  7.2122599999999997
  3.5520700000000001  3.8817499999999998  7.1731999999999996
  5.5609599999999997  1.5039100000000001  3.4516700000000000
  5.5282799999999996  6.3653300000000002  3.5142699999999998
 14.6763600000000007 11.7744000000000000  3.4540899999999999
 14.6858599999999999 16.6374700000000004  3.4296500000000001
  5.5516500000000004 19.0296799999999990  4.0876099999999997
  5.5613299999999999 14.1696899999999992  4.1149199999999997
 14.6670499999999997  8.7647300000000001  4.0919900000000000
 14.7048400000000008  3.8938600000000001  4.1227600000000004
 12.7218800000000005  1.5004200000000001  0.3225000000000000
 12.7744499999999999  6.3519899999999998  0.3760400000000000
  3.5663100000000001 11.7922700000000003  0.3119400000000000
  3.5628400000000000 16.6300799999999995  0.3452700000000000
  1.5592400000000000  7.8162700000000003  1.8642300000000001
  1.5778700000000001  4.6082400000000003  1.8591000000000000
 10.6903500000000005 18.0896299999999997  1.8824799999999999
 10.6823200000000007 14.8682599999999994  1.8839900000000001
 16.6918299999999995 12.7167100000000008  5.6572500000000003
 16.6978499999999990 15.9387000000000008  5.6581599999999996
  7.5755100000000004  2.4390299999999998  5.6567999999999996
  7.5897500000000004  5.6599899999999996  5.6543900000000002
 16.6763100000000009  7.7979900000000004  1.8794700000000000
 16.7053399999999996  4.5887300000000000  1.8719200000000000
  7.5616399999999997 18.0886099999999992  1.8797699999999999
  7.5691199999999998 14.8680500000000002  1.8823300000000001
  1.5629000000000000 12.7189599999999992  5.6562000000000001
  1.5546800000000001 15.9399300000000004  5.6574099999999996
 10.6960099999999994  2.4380000000000002  5.6575600000000001
 10.6879799999999996  5.6573200000000003  5.6552899999999999
  5.5607800000000003  1.5053500000000000  7.8635900000000003
  5.5288300000000001  6.3661599999999998  7.7978199999999998
 14.6780100000000004 11.7781000000000002  7.8608799999999999
 14.6858599999999999 16.6370600000000017  7.8854600000000001
 12.7069100000000006 19.0298799999999986 11.6288599999999995
 12.6937599999999993 14.1616800000000005 11.6558600000000006
  3.5171999999999999  8.7789000000000001 11.6205599999999993
  3.5657600000000000  3.8864700000000001 11.6594800000000003
 12.7233400000000003  1.4973399999999999 10.9924599999999995
 12.7706199999999992  6.3509599999999997 10.9361999999999995
  3.5675900000000000 11.7896000000000001 11.0012100000000004
  3.5626600000000002 16.6302799999999991 10.9701400000000007
  5.5427000000000000 19.0276299999999985 14.7670899999999996
  5.5587700000000000 14.1645599999999998 14.7372200000000007
 14.7068499999999993  8.7669899999999998 14.7708600000000008
 14.7384299999999993  3.8741500000000002 14.7461199999999995
 12.7065400000000004 19.0286499999999990 14.7676900000000000
 12.6928500000000000 14.1629199999999997 14.7408400000000004
  3.5173800000000002  8.7787000000000006 14.7750800000000009
  3.5619299999999998  3.8854400000000000 14.7364599999999992
  5.5558500000000004  1.4881000000000000 10.9927700000000002
  5.4861100000000000  6.3899800000000004 10.9057300000000001
 14.6770899999999997 11.7750199999999996 10.9971399999999999
 14.6845800000000004 16.6321300000000001 10.9686299999999992
  5.5427000000000000 19.0294699999999999 11.6268999999999991
  5.5587700000000000 14.1639400000000002 11.6572200000000006
 14.7050300000000007  8.7661700000000007 11.6250900000000001
 14.7367899999999992  3.8737400000000002 11.6471099999999996
 12.7138399999999994  1.5065800000000000  7.8566500000000001
 12.7063600000000001  6.3630800000000001  7.8599699999999997
  3.5752600000000001 11.7863100000000003  7.8638899999999996
  3.5663100000000001 16.6380799999999986  7.8857600000000003
  1.5590599999999999  7.8181200000000004  9.4510299999999994
  1.5784100000000001  4.6100899999999996  9.4549500000000002
 10.6910799999999995 18.0896299999999997  9.4306699999999992
 10.6828599999999998 14.8686699999999998  9.4279499999999992
 16.6883599999999994 12.7290299999999998 13.1981999999999999
 16.6980299999999993 15.9522499999999994 13.1998599999999993
  7.5682099999999997  2.4055599999999999 13.1994100000000003
 16.6763100000000009  7.7994300000000001  9.4329300000000007
 16.7071599999999982  4.5899700000000001  9.4403199999999998
  7.5618200000000000 18.0886099999999992  9.4317200000000003
  7.5698499999999997 14.8684600000000007  9.4285599999999992
  1.5504800000000001 12.7386800000000004 13.1984999999999992
  1.5464700000000000 15.9586100000000002 13.1994100000000003
 10.7047699999999999  2.4252699999999998 13.1990999999999996
 10.7502300000000002  5.6624600000000003 13.1988000000000003
