Si  O 
 1.0000000000000000
    13.8765999999999998    0.0000000000000000    0.0000000000000000
     0.0000000000000000    9.9933999999999994    0.0000000000000000
     0.0000000000000000    0.0000000000000000   13.8970000000000002
 Si  O  
  32  64
Cartesian
  3.1326860225239996  1.4715100619460000 10.8205306405300004
 10.6692742438639989  8.4652662343799996 10.8273517050399999
  3.2312895342079999  8.4078507536240004 10.7927531779599999
 10.7340571509640004  1.5370172986160000 10.8294829489600009
  3.0887921164679999  6.5015504427619994  3.8614193082399999
 10.7548369431660014  3.4075351415039998  3.8644710894400003
  3.1181737354779999  3.4145815877779997  3.8636601994899999
 10.8344474136639999  6.5028341949259998  3.8998882887900002
  5.4076623131339998  3.4616697890400001  6.0131499077000008
  8.4941015133060009  6.5420017272819999  5.9865881546899997
  5.4445739303679996  6.5227143653479995  5.9110090422499999
  8.4720915605140004  3.4578380196779999  6.0009101249499999
  5.4157049129619992  8.4556902586979987 13.1041857389299992
  8.4479232413579997  1.5642478146059999 12.9833425688200013
  5.4228215272719993  1.5238679828960000 13.0170708657599992
  8.4630287530540009  8.4667090814719987 13.0286384506200008
 10.0696080761440001  3.4713748794499999  0.8074733725500001
  3.7069426092179998  6.5506348256739990  0.8185809667100000
 10.1670512265359996  6.5375414729939996  0.8381701779099999
  3.7867266759820004  3.4542200091419999  0.8190791741600000
 10.0514734414340001  8.4521220152940000  7.7339606635200004
  3.7688058796779997  1.5628885123379999  7.7537980751399997
 10.0957868371079993  1.5507911019020000  7.7381886868000000
  3.8608371560700001  8.4345188410619993  7.7464915884200005
 12.3670773639919993  3.4438399644959996 12.5302097603800018
  1.5468436129420000  6.4951209890039996 12.4081354550400000
 12.3725655592919992  6.5130214668859994 12.4983617275399990
  1.5146597533280000  3.4093177641960000 12.5352035083600004
 12.3601697312779990  8.4082832679759996  5.6561659952200003
  1.5596074483879998  1.4845129743559999  5.6228068026000004
 12.3318424563360001  1.4667227236759999  5.5949499881599998
  1.5670611253119999  8.4138940624059995  5.7416375481399999
  4.4501914835639997  1.6960758506399998 11.7372181735899996
  1.9187671602280001  2.4101867261899996 11.3274680469600018
  2.6337994949000003  9.9181414034779998 10.8829315058099994
  3.5122729221599998  1.8873451295439998  9.3106275662400009
  9.3100677958660008  8.2116624234379998 11.6729783183000002
 11.2059954601539999  9.9871832057939987 11.0155972707300016
 11.8345829600620007  7.4621942990839996 11.3083277088600003
 10.3319746175359999  8.1521871030739987  9.2879207020599992
  4.4725404416940000  8.2124863792680003 11.8132403223899995
  2.0308712160520002  7.3765756447159996 11.1364215409200007
  3.7983204365160002  8.0803021784579983  9.3180231327300014
  9.4044864025220001  1.8496347348419999 11.7078824404099997
 11.9619809718100001  2.4793615406599998 11.2948780532900006
 10.3837021418239992  1.8633788577299997  9.2914014836499987
  2.6137880500400001  4.9528324716899998  3.9934898646500003
  4.5256925377379993  6.7396648834399997  4.5892211797900000
  1.9340451580619999  7.4133204771099992  4.5273641041200001
  3.2198960130120002  6.9306454530179993  2.3103595736000000
 11.2525392417459997  4.9417616832359998  4.0492999387099999
  9.3898003804439991  3.1390074868040001  4.7023101018400002
 10.4520452294199995  3.0708357098920001  2.3195311766900004
 11.9478092165279985  2.4331009927859997  4.3562438115299997
  4.4749323512360002  3.1737689290999995  4.7202193047099996
  3.4437178001160000  3.0337855791279997  2.3333828724700001
  1.9309710748640001  2.4364714668040000  4.3673336175299999
  9.4937628962820000  6.8512490892259992  4.7498258904200004
 12.0841949633300008  7.3871932324799987  4.4291434434000001
 10.5422768495580002  6.8914441429699993  2.3638241120000001
  6.9383732684480002  3.1482342930899998  5.5808517596000007
  5.2580190014579999  5.0116774083819999  6.4930694615800002
  4.9856248126080001  2.4998871847880002  7.2436729748499991
  6.9794858875660006  6.8013733289679994  5.4670520060000003
  8.6615619630840008  5.0006633824399991  6.4797261180600003
  8.8203295555580006  7.5220927400039992  7.2363710741400000
  5.0496414538560002  7.5626589486239997  7.0849450540700003
  8.8934074778400003  2.5119208373319997  7.2461200975800004
  6.9321333777259992  8.0653189739040005 12.6901072526800007
  5.3346145030740004  0.0086383948940000 13.6015604806900008
  4.9502559957620003  7.5101678156519993  0.4344719168400000
  8.8425457146260005  2.5351720813759999  0.3224823864600000
  6.9260122707000003  1.8728394096419998 12.5163840519900003
  8.5837468470939999  0.0262627551340000 13.4927974168000002
  5.0218863111319996  2.5457343057039998  0.3088677735000000
  9.0105570654239990  7.5513264330239993  0.3473745538900000
 11.3879469657799994  3.2107779869899997 13.7956741936000000
  9.5893152211579995  5.0215802681780000  0.7135015806100000
  2.4676181901100001  6.8038994606200003 13.7043422757800002
  4.2263065579300001  5.0139304204119997  0.7347138224400001
 11.5214733003860008  6.7230766389119996 13.8599785309700003
  2.4665896565179999  3.1741459800819998 13.8193099332599996
 11.4080286262359998  8.0710442926979997  6.9232922317000005
  9.6282887623859992  0.0108037648060000  7.5133260547800003
  2.4057400716879997  1.9144410344359999  6.9410468999299999
  4.1983671339579995  0.0134704036620000  7.5259117338600001
 11.4604127912360010  1.8500957303840000  6.9096109131399999
  2.4277969273880000  8.0549198418639989  7.0728471596900002
 13.8746907186059989  3.0944905873619999 13.0151012439500011
 12.2688322848860007  4.9736643135940000 11.9934543948700014
  0.0341042422880000  6.9031221304079997 12.8156623396100002
  1.6478641508140000  4.9314909663859998 11.9807221024400015
  0.0135031806940000  8.2380919684179990  6.1544611352900001
 12.0711449923920000  9.9220992895479991  5.1313064617100004
  0.0028290224420000  1.6803210556719999  5.9970609338900003
  1.8785777513079998  9.9298620627339993  5.2298652364400002
