Rb Ce  H  O 
 1.0000000000000000
    11.1208039999999997    0.0000000000000000    0.0000000000000000
    11.1208039999999997    6.5895539999999997    2.1737630000000001
     0.0000000000000000    0.0000000000000000   38.6404679999999985
 Rb  Ce  H   O  
  16   8   1  23
Cartesian
  0.0000000000000000  0.0000000000000000 17.7102016198439998
 11.1208039999999997  3.2947769999999998 15.5770569999999999
  9.3746487183320006  0.0000000000000000 14.4901754999999994
  1.7461552816679999  0.0000000000000000 14.4901754999999994
  5.5604019999999998  0.0000000000000000 14.4901754999999994
  5.5604019999999998  3.2947769999999998 18.7970831198440003
  3.8142467183319999  0.0000000000000000 17.7102016198439998
  7.3065572816679998  0.0000000000000000 17.7102016198439998
  0.0000000000000000  0.0000000000000000 24.1502924999999991
 11.1208039999999997  3.2947769999999998 22.0171478801559992
  9.3746487183320006  0.0000000000000000 20.9302663801559987
  1.7461552816679999  0.0000000000000000 20.9302663801559987
  5.5604019999999998  0.0000000000000000 20.9302663801559987
  5.5604019999999998  3.2947769999999998 25.2371739999999996
  3.8142467183319999  0.0000000000000000 24.1502924999999991
  7.3065572816679998  0.0000000000000000 24.1502924999999991
 14.8241095776280005  3.2947769999999998 15.5770569999999999
  7.4174984223719997  3.2947769999999998 15.5770569999999999
  9.2637075776280007  3.2947769999999998 18.7970831198440003
 12.9779004223719987  3.2947769999999998 18.7970831198440003
 14.8241095776280005  3.2947769999999998 22.0171478801559992
  7.4174984223719997  3.2947769999999998 22.0171478801559992
  9.2637075776280007  3.2947769999999998 25.2371739999999996
 12.9779004223719987  3.2947769999999998 25.2371739999999996
 14.2594396337239999  4.5215476786259998 27.7451005976550000
 11.1208039999999997  4.5027740392800002 18.1311870214759985
  8.9057400176720005  4.5215476786259998 20.7348696121589988
 13.3358679823280006  4.5215476786259998 20.7348696121589988
  8.9057400176720005  2.0680063213739999 16.8593352679969968
 13.3358679823279989  2.0680063213739999 16.8593352679969968
 11.1208039999999997  2.0867799607199999 19.4630178586799971
 16.6812059999999995  4.5027740392800002 14.9111609016319999
 14.4661420176719986  4.5215476786259998 17.5148048518469999
  7.7754659823279999  4.5215476786259998 17.5148048518469999
  7.7754659823280008  2.0680063213739999 13.6393091481529982
  5.5604019999999998  2.0867799607199999 16.2429917388360003
 11.1208039999999997  4.5027740392800002 24.5712779016320013
  8.9057400176720005  4.5215476786259998 27.1749218518469995
  8.9057400176720005  2.0680063213739999 23.2994261481529996
 13.3358679823279989  2.0680063213739999 23.2994261481529996
 11.1208039999999997  2.0867799607199999 25.9031087388360000
 16.6812059999999995  4.5027740392800002 21.3512131413199988
 14.4661420176719986  4.5215476786259998 23.9548957320029992
  7.7754659823279999  4.5215476786259998 23.9548957320029992
 14.4661420176719986  2.0680063213739999 20.0794000283089993
  7.7754659823280008  2.0680063213739999 20.0794000283089993
  5.5604019999999998  2.0867799607199999 22.6830439785239975
 13.3358679823280006  4.5215476786259998 27.1749218518469995
