 O Si Au 
 1.0000000000000000
    13.7065166200000004   -0.0000588000000000    0.0000243500000000
    -6.8533092299999998   11.8701637400000006   -0.0000225700000000
     0.0000263400000000   -0.0000129700000000   14.8090446000000000
 O   Si  Au 
  72  36   8
Cartesian
 11.4091390238901713  1.0939009546292098  2.1912715824194846
  4.8757169985800415  4.9556312546621415  6.6480533752460049
 -2.2007644891613132  8.9903633221230930 11.7093949343909216
  6.6388754332109219  9.6215685265438342  1.7414904427244919
  6.6597457532616602  1.9254135949633331  6.6200351545968763
 -0.1125647879694442  5.6498129498849554 11.7269400691223691
  1.7905112368824205  1.3412875901950165  2.2998384876898208
  8.4293086590119781  4.8163019645191572  6.6211146055583558
  1.7149658759634663  9.0762077907466665 11.7598676335184873
 -5.2228150675120153 10.7540102478742661 13.1704470286031636
  8.5975092910943154  2.8815399864857025  3.0816949626630197
  1.6287096315688883  6.7189485595490428  8.5187561198192920
 -0.3015002616594341  2.4083019365683205 13.2046262130130039
  6.6177325473742208  6.5649980036760009  3.2116380305025345
 -0.2527049051573260  9.9890567033103341  8.4194183951806778
  4.6173089330462611 10.7453586896984010 13.3687915372961221
  4.6909925315675141  2.9641186525694594  3.3311651141012031
 -1.9969510296622210  6.8276957716242554  8.4723032364849260
 11.0443228806695171  3.8030772041269221  2.5594088229028902
  4.0280267597135415  7.3936702343705765  7.5037182564262643
 -2.6633813385431013 11.4286980080188307 12.5522037311538099
  4.5937220861349211  7.9759789133093308  2.6891995756895795
 -1.9831141965752872 11.8067484750805978  7.4776862947782012
 -2.2158009299849679  3.9488037196053827 12.3915978062870789
  4.2273894355056330  0.4229677633113327  2.4938560258129936
 10.8643183136690098  4.4671135595156786  7.6080745305440489
  4.0596909345825383  8.2580754474548748 12.5536827697559428
  8.9810975814335343  0.1633168982000974  2.6397626652148527
  2.4184342426221899  4.4336077675905630  7.5990026400779946
  8.9752353216981877  8.1879166266811829 12.3707158956832206
  2.2095442806001424  3.8093644231683648  2.6391703340080510
  9.3169110184337409  7.2967532686080263  7.4047562264359454
  2.1294961382738240 11.5893085210907767 12.5244134551830371
  8.6814898087129979  8.0995546955845477  2.7615395826597715
  1.4968360068176734 11.7728585819783600  7.4491243787317183
  1.7419309888471910  4.0237055367051600 12.5639011934575482
 -0.2405825972865684  2.9395269721207722  1.9693216682421570
  6.6511719635677959  6.8380775707310244  7.2442559096984596
 -0.2438003784108386 10.7720907523714935 11.7832011305339996
  4.1169068235130002 10.4355144678942278  2.1359799826172212
  4.1384930774230400  2.4600496886461629  7.0197978487788477
 -2.6435767176853044  6.4928985034981794 11.7870129069989780
 -4.6323233566544788 10.5330884860464042  2.0611757169183273
  9.3185287109805284  2.2832651288824501  7.1699232331672480
  2.4161813763748246  6.3871269177615719 11.6970552653742548
  6.5803850435448359  9.0008392016883416 13.1393084889947502
  6.5697197924655644  1.1299566696992782  3.0540469254127456
 -0.1858555109671399  5.1189244091592725  7.8699164447093599
  2.2331975578840577  1.4598891219898189 12.8530664566991728
  9.1027875172884851  5.4668937149424455  3.1704117687364408
  2.2458689410652011  9.2774187737295435  7.9627661304303059
 10.9020397545731704  1.4212139886343540 12.7904462963817060
  4.0668595670433829  5.4830851176485185  3.5033270130306371
 -2.6525955784756037  9.2223181059346366  7.9432649234007231
 11.5257100373137824  2.8206902258622715  0.1344745046491315
  5.0748196376916770  7.1520151422640668  5.2777140419761679
 -2.2843022387661165 10.9232298723080596  9.9603879112601437
  4.7618488464938133  8.5902640329817448  0.1380779511857673
  4.8222246602881222  0.8775041469664830  5.0281949795036054
 -1.7276956903929610  4.6276902209084243  9.9497748473297190
  3.1908373670406998  0.2168396679599647  0.1254906585765664
 10.2131064546248655  3.8569128323437591  5.0734395802157906
  3.4530082535522659  8.1129042524809094 10.0204527215414156
  9.8797045735142230  0.2051818827790671  0.1694572769922047
  3.0213270466422175  4.0012342476183091  5.1417758976409980
 -3.9793721899723029  7.9881755471881615  9.9049030151724295
  1.6040287385546426  2.9460606440736683  0.1241829940688685
  8.2609079913380796  7.0663318611847128  5.1474616422270474
  1.7599382503215375 11.0061737435696898  9.9364616820634240
  8.4753773187331198  8.6808654340015448  0.1220536782354041
  8.4299434859612106  0.9972213950097147  5.0447178113043556
  1.4979140001647193  4.5255329241174973  9.9538293118653769
 11.8231051388260546  2.6800392812210441  1.7291795712812938
  5.1429243531834024  6.5426708847857293  6.7644576224082282
 -1.8835939676745208 10.5749514055482265 11.4545005383618328
  5.0286510139691645  9.1635927325852151  1.6500373938824899
  5.1880751466896902  1.2906843213961616  6.5928992240161346
 -1.6897133436925458  5.2132709287648193 11.4849340182444966
  2.8401693573203417  0.1659406295389812  1.7316783170373653
  9.7421611005906534  3.8396136992199685  6.6517027648984248
  2.8762562341189017  7.9281303550877231 11.5616963633164733
 10.2754995127290343  0.0104707654816271  1.7114205977041874
  3.5838414633257467  3.9418404270386498  6.6568195147602607
 -3.4228042020204885  7.9101039795700556 11.4170501370508877
  1.3448872916068011  2.7697433884597182  1.7338409802906065
  8.1297204097569242  6.4536349789782905  6.6890408385254103
  1.3267999190883328 10.6283012153055694 11.4901503806109453
  8.2074660950036691  9.2269269923856072  1.6988464883190442
  8.1797866647370459  1.2847246453604855  6.6193933340663458
  1.3976803557228055  5.1237403878897023 11.4663999904504106
  8.1957031747807534  9.1537699435882356 13.3968637605138845
  8.1434919938670927  1.3202637853854375  3.4570082489685707
  1.2885476039325454  5.1933285574319417  8.4978926847728680
  1.2775067937550701  2.6728457801770764 13.3586623982681338
  8.2031835125883514  6.7610240082380120  3.5838239537624457
  1.2815344736514589 10.5184693703812240  8.4414929457903174
 10.3019196368943078  0.0396376687799738 13.4130355574201214
  3.5062340506328051  4.0268428450258984  3.6145112297354052
 -3.3026295903957510  7.8178081367700925  8.4893344495874654
  2.8062244424773519  0.0098556602689746 13.3537618019894406
  9.7093976174187482  4.0077783106227800  3.4884696040373679
  2.7918626273960427  7.8896393720820068  8.5134201294076046
  4.9950062346222808  9.1777016094926278 13.4304873204634365
  5.0812203114611396  1.4294773723231926  3.5002386073827720
 -1.6649131052004023  5.1802427002172777  8.4440085909148408
 11.8177574677716635  2.6477884405481964 13.3234163673082300
  5.0732484688218582  6.7649367965483194  3.6942587652127301
 -1.8139378089895999 10.4908646219938131  8.4684132756767809
  6.6723858487352192  3.9180439651667047  8.6597586709442425
  6.4390271623817990  1.9875572915780813 11.9229101186106163
  6.2369674338417536  1.4307795414804405  9.4773702416407275
  6.8537190969890771  4.5706931173925742 11.7411829565803654
  8.5238831895705527  2.7295563231826345 10.0907051505489136
  4.6050643654477348  3.5445650454092794 10.4961238004260888
  8.5395234480691151  5.5137898972398034  9.8465857100465168
  5.6447479080333123  6.0748910002420615  9.9630247784554875
