 O Si Au 
 1.0000000000000000
    13.7029250099999995    0.0000001400000000    0.0000007200000000
     0.0000001300000000   12.6471261899999998   -0.0000012000000000
     0.0000009800000000   -0.0000017600000000   18.5380665200000010
 O   Si  Au 
  96  48   8
Cartesian
 13.4263040683344475 12.3215799184875028  2.8926210412254720
  6.6610866314454134  5.9530741441340007  3.2670522306890240
 13.5402284939348725 12.3954773204605555 12.3276586075116938
  6.7331072166577197  6.2851744323215364 12.2423625902188906
 13.5847077088856967 12.3669683053287951 16.2207973640532899
  6.6514448358815068  6.3171811654392860 16.0349460416888583
 13.5559298442459024 12.4252413238606181  6.9620825702178752
  6.5607666018878108  6.1411941329744195  6.6481858752840450
  1.4513399336329205 12.5615471927634843  4.8673184075432783
  8.6320958595917610  6.5517422998255581  4.8510542408911554
 11.7451019098125737  0.2333108034077174  4.9002902548430427
  4.5923287265986614  6.4352158094673690  4.8712951983751411
  1.6233559817290009 12.2310079744871114 14.1979842907998393
  8.4094431321573602  5.5690881633155644 14.1759768868966294
 11.7767062623573544 11.9028579009114477 14.1976309637387441
  5.0268860955837606  5.6788425495346848 14.1359018480710272
  1.5377905008025032  1.6380933595913467  2.6875566752523348
  8.2393031934651901  8.0327504511599042  2.6318115276988534
 11.7463866018521266  1.8013071448593072  2.8133040528382005
  5.0179129717698734  7.9753934262862325  2.6129258939912834
  1.6413050465853967 10.4858909140327121 12.2189963596776821
  8.3547484598177402  4.2224584231112363 11.9350193394043664
 11.6982955272082201 10.4773647261034597 11.9832260513017665
  5.0508593655033369  4.3231224388572809 11.8568698976526772
 11.6774737588869524 10.6594161433553012 16.4370506455182763
  5.1160731966404036  4.2586798392283898 16.4229920091941572
  1.5968403681040386 10.4233361925512220 16.3349217052196103
  8.2680778400516672  4.2953608268268706 16.5344187423822859
 11.8458403254607472  1.8262244925905542  7.0340655006650472
  4.9753443817146525  8.1982586481486432  6.9512827990208050
  1.6710368685342329  1.5947231848782508  6.8796999911438572
  8.3975176697135296  8.1400174012595770  6.9621861481837142
  2.2930903420887114 11.8148296023356121  2.5229488414793027
  9.3198962388827287  5.5488656288222611  2.6288531447394123
 10.7600445374926856 11.9925271116546046  2.6488043884873735
  4.0915817884554118  5.4991561708796617  2.6447307287163024
  2.3201165750213217  0.3339695544434448 11.6602316704372111
  9.4014894411128118  6.6924205488350283 11.9696912766195656
 11.0461430728450249  0.4704675233723864 11.9105647902288432
  4.0979182522205937  6.8510407541145213 11.9403036983306681
 11.0376851791626169  0.4893957992238734 16.3859083881890584
  4.0061815137937913  6.6581954322228931 16.3973826819700541
  2.5042098705902842  0.2518054005030007 16.4675056720899384
  9.2510921254723382  6.8068293208598822 16.3746530493317906
 10.9793081595079762 11.9050262716374675  7.2306473468619670
  3.9895344359353362  5.7433704701856376  7.2968132604941731
  2.4552411372820724 11.7918594498731792  7.1946765723429706
  9.1156979582855957  5.4970798899781865  7.2048743830651194
  1.7667962217626332 10.3750447772514587  0.4527589415506748
  8.7546786830003214  4.0050709675052731  0.5220070068010756
 11.2914689179139209 10.4179626363404925  0.5370850241632340
  4.6928823191654780  3.9598348064403694  0.5755273079993508
  1.8424018155348285  1.7006218764996319  9.5201496591449608
  8.6301969027438705  8.0738458679753311  9.6352517099683492
 11.6994634938453803  1.9050284793130332  9.7207359304153602
  4.8054701790334393  7.8520137211658163  9.6005486402877551
 11.6395062500039952  1.7332534614389987  0.1720768981246404
  4.5862930528688040  8.1429926402169031 18.5145793703496189
  1.7418548703551884  1.7095088967805423  0.0667410471661304
  8.6405091001678098  8.3143928585660039 18.5226054376285951
 11.7203154367560121 10.4800524971977591  9.2809452576106057
  4.7526438361680245  4.0544887472773690  9.2109602216950819
  1.7550264368049038 10.6508131164522766  9.4697165515053570
  8.5721797542047824  4.1162353395317623  9.2644829660428059
 13.4366154616282358  9.2647110507014503 17.9466823746028687
  6.6822608586770222  2.6569682269612160 17.9356828995188344
 13.6930384142446542  3.2392579466970202  8.3691946255837717
  6.6670693589811245  9.5664721994260020  8.3251570351918733
 13.5236796155498435  3.1542743547324159  1.2987304503770221
  6.5022197671421145  9.3967412514730402  0.9935308116973818
 13.5875932140122408  9.1992249324443236 10.5776726636290732
  6.6896467474198928  2.7562815154843050 10.3701446338617203
  2.0931373288577548  8.2071173103232695 17.4809921151534589
  9.3290601279404086  2.0700656440129190 17.3621164284334064
 11.0787009114637538  8.3210099610001578 17.4577091356923724
  4.1346541153393934  1.9861046030979228 17.4181749058626387
  2.4106941269175688  3.9341701435853769  8.0714344301058745
  9.2191260977386076 10.3295727604635701  8.2671290556789323
 11.1438561444320037  4.0393721738873687  8.2436800264010248
  4.0913437038020231 10.1113054396143376  8.2975812888294662
 11.1338688238451251  3.9258955838097789  1.5545657655066130
  4.1076954678771402 10.2073310152286822  1.7068425962811162
  2.3492660368506102  3.8323631632359292  1.5882725230185741
  8.8062393506473384 10.4537781590594996  1.6060771200187114
 11.1264889619830889  8.1963517897082205 10.8170205724001640
  4.2073840988562745  2.0022712888490033 10.8621570955424982
  2.4680084389831132  8.4872626829850653 10.6640943884683921
  9.2960139521914940  2.0212214058017510 10.9622846098648381
  9.7966194355639900 12.5313198256740570  0.1911414366307620
  2.9713038279641117  6.0512303858789620  0.2234835744684540
  3.6100709517435514 12.4411816645473241  0.2545887650689724
 10.2896685689589091  6.1946248346893960  0.3015824096955360
 10.0064558383263655 12.5452000410035467  9.5982276877136368
  2.9985505424746508  5.9687253202124539  9.7651960448809856
  3.7675465436844857 12.6041176517586120  9.3309998277585908
 10.3081401887832094  6.0945291616928134  9.5522185029489446
  1.2579275922953248  0.1292868497890179  3.2400451317773311
  8.1791956065510565  6.5389365955220979  3.2927252524295283
 11.9122331129403403  0.2548746868670667  3.2973366473526786
  5.1331308882006903  6.5044416499868634  3.3369873247973474
  1.4331886221365946 12.0724600801707993 12.6263457397329137
  8.2220974810549112  5.6980769843880887 12.5895136022801779
 12.0000822190811594 11.9873185975673806 12.6138203168663754
  5.1653313214787620  5.7661565664189824 12.5209518792283934
 12.0773559197259566 12.0425751133623109 15.7418431945038364
  5.1669149997934429  5.7388146945087852 15.7099073461899579
  1.4060996130566574 11.9609739705486486 15.7946346058539664
  8.1591261330781979  5.7478051798082275 15.7927606101594016
 12.0240155798274397  0.2402449439386887  6.5343507586867524
  5.0291303753831960  6.6396207938579348  6.4516405317524841
  1.3686099904374827  0.0828006357888370  6.5225023500593844
  8.1087099822787660  6.5859646353146717  6.4339247953856900
  1.3113001114235947  9.5643443908974906 17.6636901522694565
  8.2046892566092335  3.2297975853688228 17.7142866897063129
 11.8891604373972797  9.6872741838160845 17.6879826080100528
  5.1533583628880573  3.2456727372513292 17.6681667844612242
  1.5421148959326192  2.5335893012759803  8.1905085969918652
  8.2616131004262456  8.9746929438644898  8.3464405439156923
 12.1028772697910458  2.8116292529232449  8.3661480367539856
  5.1390504316213379  8.9368022464263959  8.3668904661412995
 12.0135985094300697  2.6021303885625056  1.4626406707390940
  5.0233479052129262  8.8772954007131553  1.3460130239482109
  1.3133117261312965  2.5498122895464830  1.3618065643921544
  8.0751625113635672  9.0108776668236779  1.3474965877095300
 11.9728608188230563  9.5602492671891390 10.6523776157538155
  5.1726399224962298  3.2731924184994230 10.5825911181871923
  1.4272270417030073  9.7454348215218900 10.7538412581812679
  8.2510514957659318  3.2860667147889555 10.6219672442887081
 10.1380843120832882 11.3166782198272440  1.2566912807053656
  3.5083254731334805  4.8639752555831386  1.2143817446277354
  2.9297535106099888 11.2134429518454990  1.1671555726905740
  9.8648447685872451  4.9073170201931351  1.2331982120270735
 10.5082766148751503  1.0687380577693779 10.5144877565895634
  3.5609298737742985  7.3072416979353489 10.4978677937483234
  3.0639971999901010  1.0080415291468832 10.3579773346562014
  9.7853299493757735  7.3205465392476228 10.4876831204110967
  3.0248270982222798  0.9276181227087946 17.8365016202193516
  9.7670074728282170  7.3702424696560245 17.8484065094995188
 10.5208664246844368  1.0429703649606015 17.7925792059948797
  3.3872777491969641  7.2720077544997750 17.7890417331898476
  3.0243276563227472 11.2703142225322779  8.6112893289109138
  9.8246548885121356  4.9110890874444895  8.5699726469480488
 10.4285438227099689 11.2967775208782442  8.6487360536720281
  3.5005500032822248  4.9436926776487358  8.6136333512123073
  6.9010531522067522  8.8746485117472318 11.9093387795798353
  5.1867075425718765 12.6401472580028162 12.4927168259119483
  4.5067517413745737 10.2041994273698506 11.4216197940253910
  7.6927109743129991 11.8733820436090305 13.3275382577018675
  5.5697384695869694 10.3991010269248534 13.9254081717097851
  6.8823572601535705 11.4825041233978471 10.7920705807718722
  8.1639079928866618  9.3318674707588318 14.1513297867710754
  9.2098047299184937 10.2940746020400731 11.7536488537291746
