Ag Ir  O 
 1.0000000000000000
     7.5548700000000002    0.0000000000000000   -0.0304030000000000
    10.6454979999999999   10.5566980000000008    1.4189520000000000
     0.0000000000000000    0.0000000000000000   32.1594449999999981
 Ag  Ir  O  
  12  12  44
Cartesian
  9.3975083479602901  6.9999170036642786 23.9399402357430198
  5.8943057580683051  2.6651056642045985 22.5437404122460343
 12.9507186013300295  9.6052313842069079 22.7625373605223373
 10.3563952575450511  6.2701298214816026 21.4167350717686809
  6.8078833846262201  2.8622763761100458 19.7108871984497398
 14.5137871249507118  9.6971970314689511 19.8284066417913536
 11.7974916213499963  6.1337433506216499 18.4125918996399740
  8.2772500427327849  2.7919715469192594 16.8076426037260234
 15.9936753718958009  9.8628793059836148 16.9071880654231279
 12.5808464665794979  6.1481166799234073 15.4271987803364929
  9.1372045779825406  2.2218319975592649 14.1927635693275782
 17.0678656887819393 10.5437677807710077 14.4022155579616751
 12.0903180641498693  5.9337184784069334 23.9091167015856279
  9.8575371919100050  2.6220023725093045 22.7034267470373337
  6.2987410267636106 -0.5982160768959022 21.0447516746658074
 14.0865825187939411  6.2060924334599648 21.4955041361229249
 10.6573278169418355  2.6491007707388534 19.6820670426473718
  7.6842702283811324 -0.8068342218774056 18.1911355503780037
  7.9148931445749673  6.1831954611739297 18.6583590725696880
  4.4155406770767245  2.7058199792679285 16.8269793383644597
  1.5792549980943034 -0.9617520700789591 15.4482039705329086
  8.6128720788930675  6.4061870395601250 15.6173833064435872
  5.6857325855792844  3.0139165505523464 13.9133465711072990
  3.7429281140584605 -1.2920540585187139 13.2145078711971902
 18.2886596331536531  9.2293705068802030 23.4022997966448614
 13.3265223155698767  4.8993898627341856 22.7928851119993823
 10.0234773309926819  1.4094470158838370 21.0942611138875726
  5.7516125338977631  0.5842780407321271 22.3441600016397217
 13.0597655711954825  7.2958278391506370 22.8983932898470677
 11.1557959755624729  7.0090902193961107 25.0481314027166491
  8.1466844225538182  2.3876190491347513 23.1367242124913162
  8.1107698662399095  6.6527993172549573 22.3898274625898814
 14.3088736215050201 12.3455471393880565 24.8924308080021461
 10.0268546224560424  8.6060906119251861 21.0188756063260982
  7.4185843732996730  4.9962786360814677 20.2962372296036122
  3.7868190340291026  1.4557187093874253 18.3743501867316148
 10.1155374008336594  3.8831639688816528 21.3574229206668171
  7.0503953780550654  0.5566094163925648 19.7702670329280572
 14.7441626500440499  7.4241738705783664 19.9222792698879125
 12.4959774268958448  6.2821862146944243 20.5923361699060443
  8.9739737469845089  2.9671428494855507 19.0584949661800067
 15.2594659523968907  9.5390344868556891 21.9376452573278620
  9.6343572196912017  6.1438711867792248 19.2821044148302434
  4.7377696525584456  3.0559394784997700 20.4429907810488629
 12.3736911791380031  9.9629575704899569 20.4742004883762263
 11.3391643586966424  8.4428672936962297 18.3247775395373900
  8.7616232904462379  5.0882478664263928 17.0713545754246532
  5.2945610368382958  1.6627183262795242 15.2337034600894903
 11.2777205217433654  3.9014746054591405 18.1187707243767093
  8.3856862102474921  0.3399621282687796 16.6420912326106638
 15.7269649313849698  7.4561190461283768 17.1079871564705499
 13.8825346875220088  5.6290148318654216 17.9437072804061799
 10.3636993135473841  2.2228604563338012 16.0294213446651135
 16.6545067660386970 10.1218073865848641 18.9676120070770189
 10.2944339979112325  6.2176564290585565 15.0417629697449495
  6.1125130421532052  2.5880886356507369 17.5108988186782213
 13.8388359569856298  9.4331884141888160 17.7651906848845762
 13.0690560215001366  8.2097729006599334 15.6033883585113173
  7.1308335515523478  5.5595708235647967 15.0283197751026378
  4.8070750704112060  3.9859577593841946 15.3752534364557665
  2.5142612463585214  0.0402652822514382 13.9986789741466975
  8.1520717044827986  7.9378124857031631 14.4910983843530339
 12.7280835814544027  4.0014876002611688 12.5624306962517753
 18.1763761698228841  9.4471262902645847 15.8808288453445989
  7.1731019116470813  2.0437710546285590 13.3223212143659371
 15.0814709484100540 10.5183258600472058 13.4983364798085450
 14.4094598279118440 14.8527633133806312 25.9463596860888792
 13.0714807011964620 14.5850280622196529 25.6110801076639341
