Al Si  O 
 1.0000000000000000
    16.1528999999999989    0.0000000000000000    0.0000000000000000
     0.0000000000000000   16.1528999999999989    0.0000000000000000
     0.0000000000000000    0.0000000000000000   16.1528999999999989
 Al  Si  O  
  48  12 120
Cartesian
  5.0052655249680003  0.6172867886670000  5.2612988432369994
  3.0983756207759998 15.5744459136359996 13.3439123052899991
 11.1854366223149988  8.6857608097050001  2.6096113193070001
 13.0252739002590001  7.6699617869129995 10.6287845896679993
  5.4052211822369989  4.9577005649249992  0.6332815517760000
 13.4984658369540007  3.0545883394559996 15.7019863045139996
  2.6379352679279999 11.1336914532809992  8.8528552914000009
 10.5831621773790001 13.0479635558309983  7.6051198465589991
  0.5797668325470000  5.4359347908839997  4.9172960239229990
 15.7192178951759978 13.4936807018579987  3.0823428983519996
  8.7590591162669984  2.6607602848020000 11.2098906591539986
  7.3770386371529995 10.8982634203679982 13.3090254333989986
  4.4947536050550001  8.8205981116289980  9.6496269667649983
  3.2788209589079997  7.2055363521059990  1.4325113754629999
 12.6524675527229977 15.2853403402619996  6.6917177720339991
 11.3706145986179994  0.8689752998940000 14.8215122396970003
  8.8411576842779986  9.4595721068939991  4.6105458302339999
  7.2402933546809995  1.2534824851319999  3.0854678383859997
 15.2325281106539983  6.6758317179419997 12.6601227350909991
  0.8455014210270000 14.7954656884469991 11.2258687847759990
  9.5648153576699997  4.6246658877689999  8.8287249586770002
  1.3870215784829998  3.3113446615290001  7.1564736951749994
  6.7069297656089999 13.0463724951809983 15.5804145717149982
 14.8141345641509989 11.3659593328380009  0.8717048169360000
 12.9602544395339994  8.7173951336519995 13.5920712463379978
 11.2097864729489984  7.6152842204129998  5.4879430906589990
  2.9500170493200000  0.6750691040760000 10.3688175556619981
  5.0591651678040002 15.3647731951859985  2.3081158255169996
 13.5729838489949994 12.9668249546670005  8.6847246011700001
  5.5018662443429989 11.1497395209600008  7.5056701564259996
 10.5087439902599993  2.9684268325079999  0.7114485039270000
  2.4164917697189998  5.1619830606449995 15.4902242084489981
  8.5979392692239998 13.8419498251200004 13.1542486686569990
  7.7014066373429992  5.6742619462889996 11.2384089271620002
  0.6787815250829999 10.4410470248310006  2.9597910075809999
 15.4203501551579976  2.4671168966669996  5.1357812800259994
 12.5162226870930002  0.8060828530410000  1.5747239299979998
 11.3658273636449980 15.3726792320909986  9.4212320680410002
  4.5051715794389997  7.1900744731680000 14.6785185309179980
  3.4433858964630000  8.7970014707219999  6.8252447507099996
  0.8774508880530000  1.5369846174959998 12.4732881173639996
 15.3831136824329988  9.4495556936039993 11.4765690615809994
  7.1715550117889997 14.6267840227979988  4.4514988848480002
  8.9211452297879994  6.6261581583329994  3.6036669234089995
  1.6311098272019997 12.4614742093619988  0.8748399332969999
  9.3621101926349990 11.6280070218929996 15.5455360993319989
 14.6657108965079992  4.5773162458829990  7.2123007020389993
  6.8210692260599988  3.3627940709640001  8.9677350392580006
 14.2216140478799993 16.0495791058529989  3.9952015893209998
 10.1785027956300009  0.1141593285180000 12.1615017725129988
  3.9677088689339999 14.3459737712189987 16.1031553676310004
 12.1001033073809996 10.1990179478040002  0.0100521111990000
 16.0641218847809988  3.9674554299329996 14.1820320125459993
 16.1502378405510001 12.1233386079149987 10.0953607502789993
  6.2415107659229996  8.2082214815039993 12.1984339246019999
  2.0708046875219996  8.0200077291749992  4.1132036927489999
 12.1505113393529989  6.2166390150899993  8.0807613705389993
  4.1253826562910003  2.0995817249880000  7.9524613087739997
  8.1071238725130002 12.1138295572140002  6.0524601318449998
  8.0293831953929988  4.0579045626569998  2.0553949824509998
  5.9878251101399993 15.3257498886629993  5.6101795152929999
  4.1294192660009994  1.3196353948499999  6.5287085202780002
  5.8584182516669996  1.6896732968549999  4.1347949511210000
  4.2591427213139994 15.8958391957619991  3.8765848680480000
  2.1673634931420001 14.4102267768389982 12.3696278507879978
  3.7829847891210000  0.0253330776570000 11.8250898470249997
  2.1868886340749998  0.9370914330779999 13.5376425960270002
  4.0476988373789995 15.0394234217339999 14.6426395479089990
  9.7930548654959999  9.6753990802439986  3.1205407916849994
  9.9447834164789999  7.4256121842719995  2.3573984849459997
 12.1762795761359985  9.2813946359220001  1.3505701366979999
 12.0623240972159991  8.2015627715369988  4.0583581360889998
 12.2106823456139999  8.4270646858709988 12.0159308685389981
 11.9481140485919983  7.1372690277779993  9.4122166499639999
 14.2045664387489996  6.4526320764450000 11.2134384821099999
 14.4063358662869980  8.7161804355719994 10.1683970568030002
  5.5692414440039997  5.8813422858179996 15.2780986721340000
  6.6845731828349990  3.9896333616329995  1.1532364570289999
  4.4060276637029991  5.8665956572919997  1.7889889179179999
  3.9002772956519998  4.3365456412949994 16.0807220585819977
 12.5298203598419988  2.1818190464099998 14.4914682719759984
 11.9836147306829979  3.7866296910060000  0.1071257097420000
 13.6159484631180003  2.1027623925269996  1.0371741553619998
 14.8328546445479983  3.9752225518979998 15.2331501588329985
  3.0532350494939999  9.8132467981409999 10.0045720835969991
  2.2454286820229998  9.8716440544530002  7.6309006826039996
  1.4051448092250001 12.2368679733329984  9.2768899151699991
  4.1675291260289997 11.9141233395929991  8.3732262625259999
 11.9711912122349986 12.2524296771929979  8.4118405776209997
  9.4423358318910005 11.9541867313469989  6.9723004292519990
 11.2232166401249991 14.2468359935849982  6.4394976688680003
 10.0635332376479987 14.4198351678750001  8.6455567261919999
 15.2442116647529993  5.6228931398249999  5.8711370451270000
  1.1611819070100000  6.6840801963269998  3.9324117133829999
  1.7439207116280000  4.4252064864599996  5.8045979195699990
 16.0222249773479994  3.9346860417029994  4.2901787418449997
  0.1013492711730000 11.9426637370739979  3.7616298476759997
 14.5083042781169986 12.5645704166699996  2.1663408530429997
  1.1088310042259999 13.5480398946989986  2.2049819819519998
 15.2782151345429984 14.8223883729930002  4.0241973370529998
  9.8624139643349995  3.2376858222389999  9.9188740033500000
  7.6242954387359996  2.0903118987359997  9.9333810843689996
  9.4039861012979991  1.5439460328090000 12.3285211432230000
  8.0092046696550003  4.0927940190119996 11.9868810085920003
  8.1708561086369986 12.2661549578519988 12.4756987761599998
  6.9143976132090001  9.6883674360089991 12.2016606279059996
  6.2818600640069997 11.6445994423019989 14.5334041078979990
  8.4006700396260001 10.3823278412220006 14.6940060929669993
  3.6790040490089995  7.9007256699509991  8.3591049127589994
  5.3428950560579995  7.9806162980609994 10.8527093348459989
  5.6357117582070000  9.9542496619949983  8.8224770169570004
  1.9410143592029998  6.4236705728610000  0.5214448487490000
  3.7943953592099997  8.0430595327649996 16.0851308311079997
  3.0388118020259998  8.1809928610319993  2.8096347798840000
 11.7670524773249987  0.0885337218420000  7.9156058829599996
 13.2857956248509996 16.0343579051249989  5.3183101807289992
 13.8722508887010001 14.3374904296679979  7.5991381046309998
 11.8231190316959989 16.1293241963339966  0.1543147918020000
 10.0347356859989993  1.6790681103599998 15.7096275953879978
 11.1180942130409992 16.0172705598599983 13.4686451606189976
  7.9810017062549994  7.9065722121059991  4.4310615896519998
  7.9758067720859991 10.8663299447129980  5.0193537612899997
  9.8861537199359990  8.7604829944020004  5.8906597631249999
  6.4277044365779998  0.2707072587450000  1.8503452239809999
  8.0385263829089997 15.9270566133599978  3.6171289117979999
  8.1807819041579997  2.6680260207509998  2.9019004677419997
  0.0689077868130000  7.9120139625869994 11.8209579352049978
 16.0062064694759982  5.2842488835569998 13.2392321446079997
 14.2588768498319993  7.5394306865999994 13.8952283889509989
  0.0236200626120000  0.1449115425960000 11.7479906015639983
  1.6288101388289999 15.7149339845669989  9.8998978994879998
 15.9272013433439987 13.4983353215219992 10.9457934901469986
  8.2733191222649989  3.7169622333059995  7.9975863732719992
 10.8896663624009999  5.2047145884210000  7.9474196656259988
  8.6975160826799982  5.8815861946079995  9.7808838168749990
 16.0850205068009977  3.8710596070739998  8.0353780211699988
  2.7737835798629997  2.9959179376049998  8.0858464649880002
  0.4372895319810000  1.9871220046079998  6.4082850971399994
  7.9513099300619992 12.1540068269129993  0.3479984006580000
  5.4427652061779996 13.7295959062349979  0.3643150910640000
  7.5970566419369989 14.2300101637710004 14.5701658468919995
  0.1841690661690000 11.8228709231519993  0.0346329483030000
 15.6599877953399993 10.0031165457779991  1.6791992719079998
 13.4634529724429992 11.0809136293500003 16.0287980769449980
 14.2483609888739995  9.7132000968240000 12.8554949681129980
 11.9447088557429986  9.2640593436419998 14.8400780598989996
  9.9826462986659994  6.3837475498079996  5.0236404178919996
 12.2575780910099983  7.1723371352070000  6.7699128302309992
  1.7469669870389999  1.8828183680249999 10.9494245005379991
  4.1327999064420000  1.0449231860790000  9.1980043204979989
  3.7368779513610000 15.3931488330869986  1.1819781196439998
  5.8456170784169998 14.0940983709389975  3.3357347328839997
 14.8624532185079996 11.9465147499629989  9.1090782447149987
 12.6928624019849998 14.1569014922549989  9.7014220482599995
  4.9291789048080004  9.7601638459290001  6.5483890521089991
  6.7799192287230001 12.1314263649449998  6.9933193903769997
 11.0169219776520002  1.7219122238489999  1.9018451919930000
  9.3548137661759991  4.1533236196530003  1.1106267221189998
  1.3173927262139999  3.9691354930619998 14.9953348888289995
  2.9325640023989998  6.4128742975589992 14.3192193998909989
  9.1111324090080004 15.0377617729109989 12.0681292879469986
  9.6213955742609993 12.9356275666649996 14.3152099270529991
  6.6110233756200003  4.7276656622640001 10.1596005105209990
  7.3560684577859998  7.0176715024169996 12.2168194784399997
  1.1242791531990000  9.3472446787649996  4.1814026903099997
  1.8712608065459999 10.8919141999649991  1.6937940631740001
 15.0046266830249984  1.3197214898070000  3.9563128364550000
 14.2797060143819987  3.0179737533809998  6.4105910851439996
 13.2710806560089996 15.9075225883319984  2.6780991307199997
 11.0757786224399979  0.1422164312310000 10.8092670794699988
  5.2600418245589999  8.1306854616269995 13.4894591414429996
  2.9451874937490001  7.9027413903420003  5.4723770255159998
 15.9827732959169992  2.6338316236829997 13.2469007338829989
  0.1025392553160000 10.8577616389080003 11.1113973822299990
  8.2010691389129988 13.4833494685469990  5.1887514849959997
  7.9699348698779993  5.3402422652909998  3.0362399372879998
  2.8245975342120002 13.1924927592839989 16.0602871863209984
 10.8219133464089996 11.2006492620059994  0.1348641157380000
 13.5199971680670004  5.3487209225009993  8.2013250008489997
  5.4321435437249992  3.0518153711129998  8.0588090948520001
