 O Si Au 
 1.0000000000000000
    13.7065166200000004   -0.0000588000000000    0.0000243500000000
    -6.8533092299999998   11.8701637400000006   -0.0000225700000000
     0.0000263400000000   -0.0000129700000000   14.8090446000000000
 O   Si  Au 
  72  36   8
Cartesian
 11.4341953406748438  1.0345673851564987  1.9224641211127782
  4.6665587188331648  5.1633225986189366  6.7700513602012524
 -2.3463088518505071  9.0107179127722521 11.8340594168020328
  6.7383180637511426  9.7554274723803136  1.7572587285824341
  6.7195383527959018  1.6215428457453989  6.5291121396142557
 -0.2993075359931172  5.5381499676600141 11.5973298920927004
  1.7469006037344390  0.9888714050661136  2.0706272883232946
  8.7352586628561788  5.0369533519655381  6.8026381528547706
  1.6966518380137328  9.1305549121034275 11.5015658280310067
 -5.1227103463371266 10.6116307243489505 12.9423277714754690
  8.5403991806498230  2.7729608785022353  2.9795473498056348
  1.8765693761076092  6.7764158446446876  8.1990473039443845
 -0.1737083526959914  2.1872278510282150 13.0700415920416333
  6.7274279082152182  5.9535392579455566  3.6158297158147437
 -0.2555029946149452 10.1869243326223788  8.3340682135572735
  4.7104487728947859 10.7178199150077376 12.8489950018717511
  4.7626229380193488  2.6499059005253147  3.3515670487192377
 -2.1453312106314621  6.7000618942283481  8.2737847318939579
 11.1108741272910017  3.6595799616000262  2.5266452403422890
  4.2669041177242661  7.7322756301114559  7.4618786867467852
 -2.7175454261105667 11.5539917245090784 12.4818380536103550
  5.1019154113979672  7.7194243347562264  2.3953174344476729
 -2.1708476039745324 11.8654505372503198  7.4775062761478521
 11.3520857255313743  3.8446731424487486 12.4138126140261740
  4.3309112415875921  0.1710732177020847  2.4922650503781982
 11.2363636070158908  4.2296957926619072  7.1467332314226963
  4.0413388220330591  8.1291586178455209 12.5635327898827391
  8.9429186501745388  0.1810524685780230  2.5025470096698008
  2.2990496537353113  4.1499972740851909  7.4891605864737167
  8.9704571971952927  7.9830324073009340 12.3975586446768649
  2.2910172484284397  3.5806182383877392  2.5463927550978065
  9.1769738233519558  7.5957944935380377  7.5289525089476079
  2.1482946243656338 11.5800556909884644 12.5012808804740914
  8.5114443527997281  7.8238307189850458  2.6291792432015635
  1.7191511769912324 11.6968955792951856  7.2624027800070721
  1.7263007120637459  3.9436261755237596 12.4964638085178485
 -0.1708800057532241  2.5843444929143944  2.0873020591773002
  6.6939507900893354  6.8094119199188841  6.8861527278005346
 -0.2598977357712337 10.7446082187334504 11.8251757339272885
  4.1516600965862862 10.3365273988260302  2.2378282986451228
  4.2955124492824721  2.5873336612525151  7.0098990584899905
 -2.7205241962915037  6.3538758703720495 11.7297377273309795
 -4.5081685172879657 10.2929638301429183  2.1633600364082448
  9.1656834538993905  2.4486785794572490  7.1926147158187472
  2.0969079088399023  6.4714762676840047 11.8409729181753409
  6.6097985590123596  8.9028102799197857 13.1431332109527812
  6.7143949347973590  0.8183465502497462  3.4092375030595141
 -0.1381397355434468  5.0312756924328284  7.9082478930044076
  2.2118611438491533  1.3506462050808414 12.8821682122753831
  9.1950863430303915  5.3422400283674456  2.9272747781801689
  2.2770573505724281  9.3514642877879144  8.2483960129868557
 11.0280558942404561  1.3463909615492586 13.1120777094628433
  4.2784807876987641  5.2564029519798998  2.9982708969371004
 -2.5901267150123699  9.2765710831663899  7.9828747384591940
 -1.8326567253776671  3.1823656334053445  0.0917660510394624
  4.8460819898113936  7.0302190733801107  4.9789226080775526
 -2.0883089485900626 10.9431845985854199  9.9923264641894356
  4.6659251689014605  8.8784552424124250  0.1827947713839443
  4.6273997055131852  0.7321248445976705  5.1130547327941631
 -2.0801786659527433  4.5405441850495549  9.8019061352109613
  3.2217003671077222  0.0203960787428841  0.0961186263753912
 10.0685618293269084  3.6792760905737212  4.9042824265937854
  3.4892262525684057  7.9728194943262816  9.9343371294862823
  3.0748339431066083 11.6851451962564479  0.1007534515241810
  3.1630909812436157  3.8789826034552148  5.0606324661078741
 -3.7544829775320210  7.9154946740647167  9.9339197279688030
  1.6263224017818263  2.8228672921889015  0.1431505658805254
  8.6620875000838264  6.9769712396264518  5.0740554800092594
  1.5437815314698753 11.2521917803985829  9.9035281368699835
 -5.0454132199744572  8.7953013641366802  0.0734803266556307
  8.8539581678664554  1.1025553349764514  4.9669302633110481
  1.6162254952536534  4.5318896416881280  9.8899209364203262
 11.9390605835515533  2.5522278272657122  1.5904711210509519
  5.0935940555003985  6.6948561687102552  6.5171946341665246
 -1.8380888101072110 10.5267337920693649 11.5705846155143792
  5.1802228560799559  9.1863003269546972  1.6895416582809604
  5.1133288566828101  1.2758276208172390  6.5985985131426332
 -1.8870377280389088  5.0284323979603238 11.3715514894797352
 -3.9049165258640843 11.7324378986313889  1.6822256876170061
  9.7728810237053487  3.8422065816698616  6.5351350516289157
  2.8403798359461763  7.8781867878950251 11.4400517410744840
  3.4566603467852577 11.7111197074621067  1.7020010100471610
  3.6011253032184936  3.9902401843961015  6.5758183237420429
 -3.3864899611365669  7.8519100593763804 11.5023466471600635
  1.4075171710336396  2.5340787170153329  1.7092282215337926
  8.3200584560681428  6.6187024256973306  6.6450784580418896
  1.3163087003035456 10.7370636840918952 11.4187123241201789
  8.2694919678353926  9.1003903385893867  1.6129124891346589
  8.3067712424509779  1.2521081909941294  6.4671691974208061
  1.2411088017847649  5.0639471954858841 11.4225199731480309
  8.1929543752324250  9.0899594832442077 13.3438421005868033
  8.2684498496304411  1.2698451821448395  3.4886089430217266
  1.4376485030006660  5.1746827875002026  8.3601715168311497
  1.3420916797029352  2.6156512718189124 13.3665411229086679
  8.2653448582412850  6.5205461166272132  3.5608130927426775
  1.2945894586347244 10.6341600574369206  8.4165611006339667
  3.4921967457313845 11.8036462964106885 13.3649230068327682
  3.6482420474888446  3.8138225009081670  3.4400089953377333
 -3.2456084877902889  7.8693005919154233  8.4242564554802879
 -4.0847559443153658 11.7730123230368964 13.3488162880775842
  9.6990484506994701  3.8642885035027605  3.3390933959666382
  2.9877914644972927  7.9207745530667406  8.4384887578046310
  5.0178349107892268  9.1195328929126624 13.4018569379430890
  5.1205975782254027  1.1108052911946162  3.6295448697814270
 -1.6831963409602888  5.0891153108286789  8.2761513756857585
 11.9689832444597695  2.6643214310862344 13.3615906362036068
  5.2590761646370208  6.4640513936361259  3.5195326247621406
 -1.7767587895034656 10.6273648381947297  8.4646924497345282
  6.3678467962479468  4.0954462866406498  8.7076073304851995
  6.9619034505689559  1.8960790580568909 11.9082301812577498
  6.3859374988424342  1.4933749380100954  9.2628546282828559
  6.9964409288544687  4.6304725187797482 11.8776347313560411
  8.5373319655526618  3.2656836787151984 10.1180787796153915
  4.8331061691572286  3.2595816161394797 10.7586375765759410
  7.8983113111211996  6.0515680154607354  9.8471391429668600
  5.0762450335836036  5.8041546061415614 10.3035840500801186
