 Y  H  C  O 
 1.0000000000000000
     9.5398800000000001    0.0000000000000000    5.5078519999999997
    -0.0000000000000000   12.0477240000000005    0.0000000000000000
     0.0000000000000000    0.0000000000000000   36.7190160000000034
 Y   H   C   O  
  24  34  22   1
Selective dynamics
Cartesian
  2.1199712133599999  4.6747940096520004 19.8282795668160006   F   F   F
  2.1199712133599999 10.6986560096519998 19.8282795668160006   F   F   F
  5.2999375732800003  4.6747940096520004 21.6642339053840018   F   F   F
  5.2999375732800003 10.6986560096519998 21.6642339053840018   F   F   F
  8.4798943933200004  4.6747940096520004 23.5001827361000011   F   F   F
  8.4798943933200004 10.6986560096519998 23.5001827361000011   F   F   F
  1.0599856066800000  1.3490679903480001 17.9923049438999989   F   F   F
  1.0599856066800000  7.3729299903480001 17.9923049438999989   F   F   F
  4.2399424267199999  1.3490679903480001 19.8282537746160017   F   F   F
  4.2399424267199999  7.3729299903480001 19.8282537746160017   F   F   F
  7.4199087866399998  1.3490679903480001 21.6642081131839994   F   F   F
  7.4199087866399998  7.3729299903480001 21.6642081131839994   F   F   F
  2.1199712133599999  4.6747940096520004 23.5001811668160023   T   T   T
  2.1199712133599999 10.6986560096519998 23.5001811668160023   T   T   T
  5.2999375732800003  4.6747940096520004 25.3361355053840001   T   T   T
  5.2999375732800003 10.6986560096519998 25.3361355053840001   T   T   T
  8.4798943933200004  4.6747940096520004 27.1720843361000028   T   T   T
  8.4798943933200004 10.6986560096519998 27.1720843361000028   T   T   T
  1.0599856066800000  1.3490679903480001 21.6642065439000007   F   F   F
  1.0599856066800000  7.3729299903480001 21.6642065439000007   F   F   F
  4.2399424267199999  1.3490679903480001 23.5001553746160035   F   F   F
  4.2399424267199999  7.3729299903480001 23.5001553746160035   F   F   F
  7.4199087866399998  1.3490679903480001 25.3361097131840012   F   F   F
  7.4199087866399998  7.3729299903480001 25.3361097131840012   F   F   F
  2.1199712133599999  2.3449208084640003 19.8282795668160006   F   F   F
  2.1199712133599999  8.3687828084640010 19.8282795668160006   F   F   F
  5.2999375732800003  2.3449208084640003 21.6642339053840018   F   F   F
  5.2999375732800003  8.3687828084640010 21.6642339053840018   F   F   F
  8.4798943933200004  2.3449208084640003 23.5001827361000011   F   F   F
  8.4798943933200004  8.3687828084640010 23.5001827361000011   F   F   F
  1.0599856066800000  3.6789411915360004 17.9923049438999989   F   F   F
  1.0599856066800000  9.7028031915360007 17.9923049438999989   F   F   F
  4.2399424267199999  3.6789411915360004 19.8282537746160017   F   F   F
  4.2399424267199999  9.7028031915360007 19.8282537746160017   F   F   F
  7.4199087866399998  3.6789411915360004 21.6642081131839994   F   F   F
  7.4199087866399998  9.7028031915360007 21.6642081131839994   F   F   F
  2.1199712133599999  2.3449208084640003 23.5001811668160023   T   T   T
  2.1199712133599999  8.3687828084640010 23.5001811668160023   T   T   T
  5.2999375732800003  2.3449208084640003 25.3361355053840001   T   T   T
  5.2999375732800003  8.3687828084640010 25.3361355053840001   T   T   T
  8.4798943933200004  2.3449208084640003 27.1720843361000028   T   T   T
  8.4798943933200004  8.3687828084640010 27.1720843361000028   T   T   T
  1.0599856066800000  3.6789411915360004 21.6642065439000007   F   F   F
  1.0599856066800000  9.7028031915360007 21.6642065439000007   F   F   F
  4.2399424267199999  3.6789411915360004 23.5001553746160035   F   F   F
  4.2399424267199999  9.7028031915360007 23.5001553746160035   F   F   F
  7.4199087866399998  3.6789411915360004 25.3361097131840012   F   F   F
  7.4199087866399998  9.7028031915360007 25.3361097131840012   F   F   F
  4.8113907786000008  1.5185553715800000 29.1904700490120028   T   T   T
  4.9240853810400003  0.2121483719160000 31.3308563699920022   T   T   T
  5.3079701522399994 -1.2522524802840000 30.4161489463200034   T   T   T
  3.1195216802400001 -1.0444533367320001 29.0840565756320046   T   T   T
  2.7111480370800005  0.4029481769040000 30.0366194698760012   T   T   T
  2.7571302586800002  0.4652469577080000 28.2613652013960035   T   T   T
  7.0455257359200001  1.2614569414200001 30.4556365032720038   T   T   T
  7.4239823154000009 -0.2515444293960000 29.6075245231960018   T   T   T
  7.3419298075199997 -0.2241479050200000 31.3738505644480021   T   T   T
  4.9032598230000000  0.3319509393720000 27.2471344828680024   T   T   T
  0.0000000000000000  0.0000000000000000 16.1563670400000028   F   F   F
  0.0000000000000000  6.0238620000000003 16.1563670400000028   F   F   F
  3.1799568200400001  0.0000000000000000 17.9923158707160020   F   F   F
  3.1799568200400001  6.0238620000000003 17.9923158707160020   F   F   F
  6.3599231799600000  0.0000000000000000 19.8282702092840033   F   F   F
  6.3599231799600000  6.0238620000000003 19.8282702092840033   F   F   F
  0.0000000000000000  0.0000000000000000 19.8282686400000046   F   F   F
  0.0000000000000000  6.0238620000000003 19.8282686400000046   F   F   F
  3.1799568200400001  0.0000000000000000 21.6642174707160038   F   F   F
  3.1799568200400001  6.0238620000000003 21.6642174707160038   F   F   F
  6.3599231799600000  0.0000000000000000 23.5001718092840051   F   F   F
  6.3599231799600000  6.0238620000000003 23.5001718092840051   F   F   F
  0.0000000000000000  0.0000000000000000 23.5001702400000028   T   T   T
  0.0000000000000000  6.0238620000000003 23.5001702400000028   T   T   T
  3.1799568200400001  0.0000000000000000 25.3361190707160020   T   T   T
  3.1799568200400001  6.0238620000000003 25.3361190707160020   T   T   T
  6.3599231799600000  0.0000000000000000 27.1720734092840033   T   T   T
  6.3599231799600000  6.0238620000000003 27.1720734092840033   T   T   T
  4.7127102598800006  0.4271520544200000 29.1879878476680048   T   T   T
  5.4060305787600003 -0.1596443907240000 30.4193012697320029   T   T   T
  3.2398577265600004  0.0425525611680000 29.1490529008080017   T   T   T
  6.8905790049600002  0.1779569312040000 30.4612067844960031   T   T   T
  5.3489820963600003 -0.0681539746680000 28.0131408726600029   T   T   T
