La Ga Cu  H  C  O 
 1.0000000000000000
    10.2276310000000006    0.0000000000000000    0.0000000000000000
    -0.0000000000000000    9.1763879999999993    3.0587960000000001
     0.0000000000000000    0.0000000000000000   36.7055539999999993
 La  Ga  Cu  H   C   O  
  11  28  16  11   6   1
Selective dynamics
Cartesian
  7.7227818917900004  4.5881939999999997 16.3135876290120017   F   F   F
  7.7227818917900004  7.6469869412039992 19.3723623285500004   F   F   F
  2.5048491082100002  7.6469869412039992 16.3135783970679995   F   F   F
  2.5048491082100002  4.5881939999999997 19.3723715604939990   F   F   F
  2.5048491082100002  1.5294010587960001 16.3135968609560003   F   F   F
  7.7227818917900004  4.5881939999999997 22.4311554919759963   F   F   F
  7.7227818917900004  1.5294010587960001 19.3723807924380012   F   F   F
  7.7227818917900004  7.6469869412039992 25.4899668970680011   T   T   T
  2.5048491082100002  7.6469869412039992 22.4311829655860002   F   F   F
  2.5048491082100002  4.5881939999999997 25.4899761290119997   T   T   T
  2.5048491082100002  1.5294010587960001 22.4311647239200020   T   T   T
  6.5032493989810005  7.6469869412039992 16.3135783970679995   F   F   F
  6.5032493989810005  4.5881939999999997 19.3723715604939990   F   F   F
  6.5032493989810005  1.5294010587960001 16.3135968609560003   F   F   F
  1.1946179836930002  4.5881939999999997 16.3135876290120017   F   F   F
  1.1946179836930002  7.6469869412039992 19.3723623285500004   F   F   F
  3.7243816010190001  4.5881939999999997 16.3135876290120017   F   F   F
  3.7243816010190001  7.6469869412039992 19.3723623285500004   F   F   F
  9.0330130163070006  7.6469869412039992 16.3135783970679995   F   F   F
  9.0330130163070006  4.5881939999999997 19.3723715604939990   F   F   F
  9.0330130163070006  1.5294010587960001 16.3135968609560003   F   F   F
  5.1138155000000003  6.1175950587959997 17.8429948609560007   F   F   F
  5.1138155000000003  3.0587929412039996 14.7841803970679990   F   F   F
  5.1138155000000003  0.0000000000000000 17.8429735604939985   F   F   F
  6.5032493989810005  7.6469869412039992 22.4311829655860002   F   F   F
  6.5032493989810005  4.5881939999999997 25.4899761290119997   T   T   T
  6.5032493989810005  1.5294010587960001 22.4311647239200020   T   T   T
  1.1946179836930002  4.5881939999999997 22.4311554919759963   F   F   F
  1.1946179836930002  1.5294010587960001 19.3723807924380012   F   F   F
  1.1946179836930002  7.6469869412039992 25.4899668970680011   T   T   T
  3.7243816010190001  4.5881939999999997 22.4311554919759963   F   F   F
  3.7243816010190001  1.5294010587960001 19.3723807924380012   F   F   F
  3.7243816010190001  7.6469869412039992 25.4899668970680011   T   T   T
  9.0330130163070006  7.6469869412039992 22.4311829655860002   F   F   F
  9.0330130163070006  4.5881939999999997 25.4899761290119997   T   T   T
  9.0330130163070006  1.5294010587960001 22.4311647239200020   T   T   T
  5.1138155000000003  6.1175950587959997 23.9605627239200025   F   F   F
  5.1138155000000003  3.0587929412039996 20.9017849655859997   F   F   F
  5.1138155000000003  0.0000000000000000 23.9605781290119992   T   T   T
  0.0000000000000000  3.0587929412039996 17.8429643285499999   F   F   F
  0.0000000000000000  0.0000000000000000 14.7841896290120012   F   F   F
  5.1138155000000003  3.0587929412039996 17.8429643285499999   F   F   F
  5.1138155000000003  0.0000000000000000 14.7841896290120012   F   F   F
  0.0000000000000000  6.1175950587959997 17.8429948609560007   F   F   F
  0.0000000000000000  3.0587929412039996 14.7841803970679990   F   F   F
  0.0000000000000000  0.0000000000000000 17.8429735604939985   F   F   F
  0.0000000000000000  6.1175950587959997 20.9017787924380016   F   F   F
  0.0000000000000000  3.0587929412039996 23.9605688970680006   T   T   T
  0.0000000000000000  0.0000000000000000 20.9017574919759994   F   F   F
  5.1138155000000003  6.1175950587959997 20.9017787924380016   F   F   F
  5.1138155000000003  3.0587929412039996 23.9605688970680006   T   T   T
  5.1138155000000003  0.0000000000000000 20.9017574919759994   F   F   F
  0.0000000000000000  6.1175950587959997 23.9605627239199990   F   F   F
  0.0000000000000000  3.0587929412039996 20.9017849655859997   F   F   F
  0.0000000000000000  0.0000000000000000 23.9605781290119992   T   T   T
  3.2135012049379998  2.1677014316879997 26.6506363784159994   T   T   T
  0.5350073776100001  3.2485055867160000 27.6526276306740009   T   T   T
  2.0415987896960002  4.1299894179959997 27.5446398747959975   T   T   T
  2.0419056186260001  0.0494790840960000 26.1867822133980006   T   T   T
  0.5350073776100001  0.6916060107840000 26.7999974220440009   T   T   T
  1.5666071507940000  3.3489319769880002 29.8783056011940005   T   T   T
  3.0843057701460004  2.7040246047359999 29.2572996387619995   T   T   T
  3.0843057701460004  0.1643949910200000 28.4104260842039977   T   T   T
  1.5666991994730002 -0.7242372465119999 28.5202521767079986   T   T   T
  1.8472022072790000  0.9154364668799999 30.3900085973179976   T   T   T
  0.4074995019330001  1.2368211038039998 29.4261788605679975   T   T   T
  2.1168025604389999  2.1569467049519999 26.6658080075980024   T   T   T
  1.6238000633459999  3.1336447381200001 27.7328262094540001   T   T   T
  1.6238000633459999  0.7355700856919999 26.9331376419920012   T   T   T
  1.9947051015610002  2.6657590667759998 29.1361896640339992   T   T   T
  1.9947051015610002  0.2675467685280000 28.3365653312940005   T   T   T
  1.5041981464320002  1.2445384461119999 29.4027270702179990   T   T   T
  1.6699062238940001  2.5844562690960000 25.3835851171360005   T   T   T
