La  H Os  C  N  O 
 1.0000000000000000
    10.9957709999999995    0.0000000000000000    0.0000000000000000
    -0.0000000000000000   21.7718649999999982   -0.7266790000000000
     0.0000000000000000    0.0000000000000000   35.3317040000000020
 La  H   Os  C   N   O  
  24   8  24   3  84   1
Selective dynamics
Cartesian
  0.0000000000000000 19.4215050857899989 15.8352454304059993   F   F   F
  3.6652533347429999 19.4215050857899989 15.8352454304059993   F   F   F
  7.3305176652570001 19.4215050857899989 15.8352454304059993   F   F   F
  0.0000000000000000 10.7127590857899992 14.3593318304060009   F   F   F
  3.6652533347429999 10.7127590857899992 14.3593318304060009   F   F   F
  7.3305176652570001 10.7127590857899992 14.3593318304060009   F   F   F
  0.0000000000000000  6.3583860857899985 18.0378380304060002   F   F   F
  3.6652533347429999  6.3583860857899985 18.0378380304060002   F   F   F
  7.3305176652570001  6.3583860857899985 18.0378380304060002   F   F   F
  0.0000000000000000 15.0671320857900000 19.5137516304060021   T   T   T
  3.6652533347429999 15.0671320857900000 19.5137516304060021   T   T   T
  7.3305176652570001 15.0671320857900000 19.5137516304060021   T   T   T
  0.0000000000000000  6.7047329142099992 14.0313222495940018   F   F   F
  3.6652533347429999  6.7047329142099992 14.0313222495940018   F   F   F
  7.3305176652570001  6.7047329142099992 14.0313222495940018   F   F   F
  0.0000000000000000  2.3503599142099998 17.7098284495940028   F   F   F
  3.6652533347429999  2.3503599142099998 17.7098284495940028   F   F   F
  7.3305176652570001  2.3503599142099998 17.7098284495940028   F   F   F
  0.0000000000000000 15.4134789142099979 15.5072358495940019   F   F   F
  3.6652533347429999 15.4134789142099979 15.5072358495940019   F   F   F
  7.3305176652570001 15.4134789142099979 15.5072358495940019   F   F   F
  0.0000000000000000 11.0591059142099990 19.1857420495940012   T   T   T
  3.6652533347429999 11.0591059142099990 19.1857420495940012   T   T   T
  7.3305176652570001 11.0591059142099990 19.1857420495940012   T   T   T
  3.6617017007099997 -1.4084219468499999 21.8288277219900024   T   T   T
  2.0755507381889999 -2.1500587562099995 22.1009032434460018   T   T   T
  3.0970798556309997 -1.7063699193749999 23.4849117451690006   T   T   T
  2.8769885032950002  0.6964384176200000 22.8857258706360014   T   T   T
  1.3912069384619998  1.1529726548049999 21.1138664792130015   T   T   T
  0.1392504439440000 -0.6796087659750000 23.0061687272090012   T   T   T
  1.1308930558079999 -0.2460656182300000 24.4156013711859998   T   T   T
  0.4582267648830000  1.0239525828150000 23.3894007071990018   T   T   T
  1.8326321652570001  4.5978477662949997 15.9538022901909997   F   F   F
  5.4978854999999998  4.5978477662949997 15.9538022901909997   F   F   F
  9.1631388347430001  4.5978477662949997 15.9538022901909997   F   F   F
  1.8326321652570001  0.2434747662950000 19.6323084901910008   T   T   T
  5.4978854999999998  0.2434747662950000 19.6323084901910008   T   T   T
  9.1631388347430001  0.2434747662950000 19.6323084901910008   T   T   T
  1.8326321652570001 13.3065937662950002 17.4297158901910016   F   F   F
  5.4978854999999998 13.3065937662950002 17.4297158901910016   F   F   F
  9.1631388347430001 13.3065937662950002 17.4297158901910016   F   F   F
  1.8326321652570001 17.6609667662949974 13.7512096901910006   F   F   F
  5.4978854999999998 17.6609667662949974 13.7512096901910006   F   F   F
  9.1631388347430001 17.6609667662949974 13.7512096901910006   F   F   F
  1.8326321652570001  4.1108982337050000 19.7938641898089998   T   T   T
  5.4978854999999998  4.1108982337050000 19.7938641898089998   T   T   T
  9.1631388347430001  4.1108982337050000 19.7938641898089998   T   T   T
  1.8326321652570001 21.5283902337049966 13.9127653898090013   F   F   F
  5.4978854999999998 21.5283902337049966 13.9127653898090013   F   F   F
  9.1631388347430001 21.5283902337049966 13.9127653898090013   F   F   F
  1.8326321652570001  8.4652712337049998 16.1153579898090022   F   F   F
  5.4978854999999998  8.4652712337049998 16.1153579898090022   F   F   F
  9.1631388347430001  8.4652712337049998 16.1153579898090022   F   F   F
  1.8326321652570001 17.1740172337049977 17.5912715898090042   F   F   F
  5.4978854999999998 17.1740172337049977 17.5912715898090042   F   F   F
  9.1631388347430001 17.1740172337049977 17.5912715898090042   F   F   F
  2.7851848112160003 -1.4099895211300000 22.4802553378220011   T   T   T
  2.1426909159149998 -0.0317651510350000 22.5071790141410020   T   T   T
  0.8922848251079999  0.0189197506850000 23.3816075695170014   T   T   T
  1.8326321652570001  3.9692940237449998 12.9501403285930010   F   F   F
  5.4978854999999998  3.9692940237449998 12.9501403285930010   F   F   F
  9.1631388347430001  3.9692940237449998 12.9501403285930010   F   F   F
  1.8326321652570001 21.3867860237449996 15.9019675285929996   F   F   F
  5.4978854999999998 21.3867860237449996 15.9019675285929996   F   F   F
  9.1631388347430001 21.3867860237449996 15.9019675285929996   F   F   F
  1.8326321652570001 12.6780400237449982 14.4260539285930012   F   F   F
  5.4978854999999998 12.6780400237449982 14.4260539285930012   F   F   F
  9.1631388347430001 12.6780400237449982 14.4260539285930012   F   F   F
  1.8326321652570001  8.3236670237449992 18.1045601285930005   F   F   F
  5.4978854999999998  8.3236670237449992 18.1045601285930005   F   F   F
  9.1631388347430001  8.3236670237449992 18.1045601285930005   F   F   F
  1.8326321652570001 17.0324130237450007 19.5804737285930024   T   T   T
  5.4978854999999998 17.0324130237450007 19.5804737285930024   T   T   T
  9.1631388347430001 17.0324130237450007 19.5804737285930024   T   T   T
  1.8326321652570001  4.3543729999999998 17.8738332399999997   F   F   F
  5.4978854999999998  4.3543729999999998 17.8738332399999997   F   F   F
  9.1631388347430001  4.3543729999999998 17.8738332399999997   F   F   F
  1.8326321652570001 13.0631189999999986 19.3497468400000017   T   T   T
  5.4978854999999998 13.0631189999999986 19.3497468400000017   T   T   T
  9.1631388347430001 13.0631189999999986 19.3497468400000017   T   T   T
  1.8326321652570001  8.7087459999999997 14.1953270400000005   F   F   F
  5.4978854999999998  8.7087459999999997 14.1953270400000005   F   F   F
  9.1631388347430001  8.7087459999999997 14.1953270400000005   F   F   F
  1.8326321652570001 17.4174919999999993 15.6712406400000024   F   F   F
  5.4978854999999998 17.4174919999999993 15.6712406400000024   F   F   F
  9.1631388347430001 17.4174919999999993 15.6712406400000024   F   F   F
  1.8326321652570001  6.0958173938900000 19.9866303140819994   T   T   T
  5.4978854999999998  6.0958173938900000 19.9866303140819994   T   T   T
  9.1631388347430001  6.0958173938900000 19.9866303140819994   T   T   T
  1.8326321652570001  1.7414443938899999 14.8322105140820000   F   F   F
  5.4978854999999998  1.7414443938899999 14.8322105140820000   F   F   F
  9.1631388347430001  1.7414443938899999 14.8322105140820000   F   F   F
  1.8326321652570001 14.8045633938899979 12.6296179140820009   F   F   F
  5.4978854999999998 14.8045633938899979 12.6296179140820009   F   F   F
  9.1631388347430001 14.8045633938899979 12.6296179140820009   F   F   F
  1.8326321652570001 10.4501903938899989 16.3081241140819984   F   F   F
  5.4978854999999998 10.4501903938899989 16.3081241140819984   F   F   F
  9.1631388347430001 10.4501903938899989 16.3081241140819984   F   F   F
  1.8326321652570001 19.1589363938899986 17.7840377140820003   F   F   F
  5.4978854999999998 19.1589363938899986 17.7840377140820003   F   F   F
  9.1631388347430001 19.1589363938899986 17.7840377140820003   F   F   F
  1.8326321652570001  4.7394519762549994 13.9646001514070015   F   F   F
  5.4978854999999998  4.7394519762549994 13.9646001514070015   F   F   F
  9.1631388347430001  4.7394519762549994 13.9646001514070015   F   F   F
  1.8326321652570001  0.3850789762550000 17.6431063514070026   F   F   F
  5.4978854999999998  0.3850789762550000 17.6431063514070026   F   F   F
  9.1631388347430001  0.3850789762550000 17.6431063514070026   F   F   F
  1.8326321652570001 13.4481979762549990 15.4405137514070017   F   F   F
  5.4978854999999998 13.4481979762549990 15.4405137514070017   F   F   F
  9.1631388347430001 13.4481979762549990 15.4405137514070017   F   F   F
  1.8326321652570001  9.0938249762549983 19.1190199514070009   T   T   T
  5.4978854999999998  9.0938249762549983 19.1190199514070009   T   T   T
  9.1631388347430001  9.0938249762549983 19.1190199514070009   T   T   T
  1.8326321652570001 17.8025709762549980 20.5949335514070029   T   T   T
  5.4978854999999998 17.8025709762549980 20.5949335514070029   T   T   T
  9.1631388347430001 17.8025709762549980 20.5949335514070029   T   T   T
  1.8326321652570001  6.5315594999999993 16.0345801400000028   F   F   F
  5.4978854999999998  6.5315594999999993 16.0345801400000028   F   F   F
  9.1631388347430001  6.5315594999999993 16.0345801400000028   F   F   F
  1.8326321652570001  2.1771864999999999 19.7130863400000038   T   T   T
  5.4978854999999998  2.1771864999999999 19.7130863400000038   T   T   T
  9.1631388347430001  2.1771864999999999 19.7130863400000038   T   T   T
  1.8326321652570001 15.2403054999999981 17.5104937400000011   F   F   F
  5.4978854999999998 15.2403054999999981 17.5104937400000011   F   F   F
  9.1631388347430001 15.2403054999999981 17.5104937400000011   F   F   F
  1.8326321652570001 19.5946785000000006 13.8319875400000001   F   F   F
  5.4978854999999998 19.5946785000000006 13.8319875400000001   F   F   F
  9.1631388347430001 19.5946785000000006 13.8319875400000001   F   F   F
  1.8326321652570001  2.6129286061099997 15.7610361659180018   F   F   F
  5.4978854999999998  2.6129286061099997 15.7610361659180018   F   F   F
  9.1631388347430001  2.6129286061099997 15.7610361659180018   F   F   F
  1.8326321652570001 20.0304206061099990 18.7128633659180039   T   T   T
  5.4978854999999998 20.0304206061099990 18.7128633659180039   T   T   T
  9.1631388347430001 20.0304206061099990 18.7128633659180039   T   T   T
  1.8326321652570001 11.3216746061099993 17.2369497659180020   F   F   F
  5.4978854999999998 11.3216746061099993 17.2369497659180020   F   F   F
  9.1631388347430001 11.3216746061099993 17.2369497659180020   F   F   F
  1.8326321652570001  6.9673016061099995 20.9154559659179995   T   T   T
  5.4978854999999998  6.9673016061099995 20.9154559659179995   T   T   T
  9.1631388347430001  6.9673016061099995 20.9154559659179995   T   T   T
  1.8326321652570001 15.6760476061100000 13.5584435659180009   F   F   F
  5.4978854999999998 15.6760476061100000 13.5584435659180009   F   F   F
  9.1631388347430001 15.6760476061100000 13.5584435659180009   F   F   F
  1.8326321652570001  0.2935065120649999 21.1314940360649999   T   T   T
