 V  P  H  C  O 
 1.0000000000000000
     7.0479000000000003    0.0000000000000000    0.0000000000000000
     0.0000000000000000   15.3070000000000004    0.0000000000000000
     0.0000000000000000    0.0000000000000000   17.5369999999999990
 V   P   H   C   O  
   8   8  28  16  52
Cartesian
  5.2615177016428625  3.8643154172671519 13.0663368364614207
  1.7629841804227169  3.7900232625542869  4.3483814359956972
  3.5798446043601446  0.0086125211342857  8.8059979437328515
  5.3077233049014332 11.5069166238085767 13.2367052024571539
 -0.0601650551251430  7.6574789842928341 -0.0494660421900000
  3.4627880919179956  7.6646001173300142  0.0267255959185714
  1.7831948808098599 11.4251790970985496  4.3620216358400103
  7.1034260917029775 -0.0116397451400000  8.7284470929700042
  1.6480122241737127  9.7267241541328513  1.7383859680685716
  5.2339903008914428  5.6064070166885829 15.7719483778057228
  1.8401911839352825 13.1767600146042891  7.0806744268485815
  1.7134006828694299  5.5358673591157181  1.6727143459185698
  5.3394097289398443 13.2439036453271513 10.5168923045485858
  5.1507632933825800  9.7810103803256911 15.8554709321499967
  1.8362928198078539  2.0768279731685642  7.0329612732157036
  5.4174781657977178  2.1257424685428532 10.4455277383657190
  3.9879095599355794  3.9777744900271439 10.1516845564999993
  6.7401846867044428 11.4083861719428636  9.9447146219242999
  4.6909651775388426  4.5804768204471467  4.8874397537771435
  1.7340524881427191  7.3936219758428532 15.7535314292485893
  0.3678997751074297  3.8897228725042887  7.4636308794585720
  4.7895014178924331  3.3128910225757271  3.9921880150400062
  5.2591674051005635  7.7910370273900176  1.7843150125485761
  2.0237082803927158 11.6000253182471535  8.9056064242299922
  5.3103171255764288  0.1350080885471426  6.9778377778471405
  5.0731007178228520  4.0243588916171440  0.0520870289257143
  6.5957082206345659 11.6280666127399837 16.1430973093871479
  1.1900024639761442  4.2644888461228687 12.9455689189456855
  2.4970866508297007 10.6138590099985439 12.5707464974971312
  0.3340711512999996  3.6521827951885770  1.3084647623242829
  5.4809510387190157 11.6495900892542750  8.7047187188114350
  1.3883558524155717  3.9234406672842841 17.4337484435485486
  5.9588879793871277 12.1328481021142718  4.1368467624914391
  5.5756826982613052 11.4147992893400385  0.0521827566442858
  3.1083082505181423 11.5667013998114250  1.4348985738900011
  2.0599162452468569 11.3657087377886210 17.5416542072671398
  5.0048475182605747  3.7602701324214309  8.7053788452557512
  3.8142839704687108  3.7810416796314406 16.3468443740585698
  3.2191790923692851 11.3256219437757153  7.6119764539514359
  1.0135897219645711  2.9520032569071404 13.7536944288614418
  2.3481065674024246 11.9367916873414259 13.3663087659313877
  5.8768293299497092 10.7836369117285695  4.8888907115985774
  1.5194407111909982  3.6842326215414225  8.8125417740542478
  1.7854171777167178 -0.2755498709471428 10.5348001945843066
  5.9624086223587192  4.8465459725414162 10.3271942699357062
  4.8311637944371402 10.5269560232328505 10.4543656622599777
  4.6181434875542982 12.5001553046214369 15.9699089394357312
  2.2666933419410116  4.7733374629614298  7.0972196121200062
  2.2956556980292921  2.8718071238257110  1.5629345969414232
  1.4187302813980023  3.6916173474285729  7.7233417438299954
  2.1669210570564346 11.5689759391471263  7.8212473037728678
  1.3566036973307143  3.9086821587757141  0.9900487094385735
  1.3135445878658580 10.5161578771928639  7.1599171383628564
  5.6774371425800023 11.6270943954928541  9.7804503940214236
  2.0803282532229974 11.3592977958000176  1.0981143856099991
  5.5764208805202813 11.4115879140685852 16.4954399435842767
  4.8790741835758471  3.9975020594157127 16.5122705054657324
  5.0066843568198571  3.7577359516128497  9.7987839857814301
  5.6828180630431513  2.9257761040085666 15.8238038164957580
  1.1728696940780015 12.4259038964914428  1.6665539547414248
  4.0135986423182937 13.7893906768371401  9.9423819579714117
  5.3490733853592962  5.3838441203471392 14.2503012231514443
  1.6991970575145747  7.6566086902914181 16.6918993169186045
  0.1508666581551426  3.6812983861528537  4.2831837484314308
  6.6632523363054332  1.5672347000057130  9.7032848204828568
  3.9016193374458705  9.2480346243785707 16.6112795505786011
  3.3682328526981506 11.3996118843300227  4.0338726606457236
  5.2151214465368554 10.3898115867042673 11.7511100126785610
  6.4096303441942890 11.5920554746971671  4.8095321813457268
  2.9054898133370206 11.4869682478214408 12.7075195048214482
  6.5951538956251516  2.2465851514571384 16.4033051748314520
  2.2936570387900086  2.7575013365785681  2.8784227610099977
  6.5960782585730051  5.5454422302085673  9.6192554271771460
  3.0856460917030017  5.4762952474671138  7.7747075232185727
  5.2351160361761364 13.0191794944285810 12.0428600107042971
  0.6169440758147148  3.8263301788785751 13.5996615903799523
  1.9134490567292819  5.3926213119471367  3.1734687905157077
  6.5685947125358668  6.1296977624257138 16.3626338972714152
  2.0820832223477126  2.2930911379885703  5.5306154383585753
  1.3226126057952869  9.9075077022814462  3.2344996738885721
  6.0247410567397006  4.8956304308042835 11.6774323215271600
  3.1278855650095654  1.5499509171342893  7.7110374331099862
  0.4426179316522866 13.1550868047228473  0.9163003552100013
  5.6948285069305840  2.2603983333642867 11.9436483519714596
  4.5591905102469905 12.5517947894085697 14.6156338262242720
  1.7296886393828599 12.9983385275642576  5.5726911931971559
  3.0541636540804311  2.1597800610557152  0.8168639585114317
  0.4356605998525704  9.8291848234685997  7.7946785254042759
  3.9797857924205564 13.1912008263771394 16.6751734905457205
  4.2216745948800032  1.1777627956028556 10.1357980520842741
  3.0085809594544313 14.1435857458328638  7.4434487656999906
  1.8183826177024309 -0.0110943374714286  9.5967440672799853
  4.1707312252857163  3.9750995906385800  4.3375651330243032
  0.3761546977779992  9.2156348661099834  1.0099808032085695
  5.3337680552632900 15.2801050493842965  7.9397071929242795
  2.8412760186745611  8.7600247504828843  1.5125985127700008
  6.8670236416052681 11.5176719022928378 13.6564386247028331
  1.5645011532105744 10.3602364734385919  5.8703887726814257
  4.8505885952954317  9.9169466074729051 14.3566605310557414
  4.0694142815778447  6.5787855262199830 16.0718945683343293
  6.3311223844171103  8.8170708405114304 16.1465118331514681
  0.5337724116315701  6.4951257607314297  1.3232728105028557
  3.7006451791134336  3.8926319333128614 12.6399022062571351
  2.1050269399272823  4.9320093566228405  5.7890016440857073
  0.5417365317282863 13.7553140288542703  7.7239298568214334
  0.6489208446505753  1.1079422538142882  7.2639060213728674
  5.2341500434680039  7.6293478445742950  0.8224918689128548
  5.3428289045134241  2.7567733747600056 14.5473480389857581
  6.5235990810608637 14.1856906553099673 10.2063660439814310
  1.1444083073277200 12.5492614581628530  2.9905443054914271
  2.9930541594981501  6.0928718240685722  0.9725962685785710
  3.9932398457490068  9.9078267063814209  9.9239309959057262
