 H  C  O Al Si 
 1.0000000000000000
    13.8590000000000000    0.0000000000000000    0.0000000000000000
     0.0000000000000000   17.4200000000000017    0.0000000000000000
     0.0000000000000000    0.0000000000000000   20.1520000000000010
 H   C   O   Al  Si 
   9   7 192   1  95
Cartesian
  5.6474700000000002  7.9750500000000004 14.9893599999999996
  8.0514799999999997  7.2653600000000003 14.7495300000000000
  8.2068100000000008  6.5193700000000003 17.1712600000000002
  5.7658600000000000 10.2770700000000001 18.3610700000000016
  5.5721400000000001 10.8252900000000007 15.7210999999999999
  6.1755399999999998  7.1293800000000003 19.7088999999999999
  6.8967400000000003  8.7895599999999998 20.1439799999999991
  8.0202299999999997  7.3776500000000000 19.6849799999999995
  6.6039899999999996  9.2502999999999993 14.0362500000000008
  6.4629599999999998  8.7685300000000002 15.0597899999999996
  7.7802899999999999  8.0874100000000002 15.4913500000000006
  7.7011799999999999  7.5096900000000000 16.9200599999999994
  6.9364400000000002  8.2895699999999994 18.0015199999999993
  6.1897599999999997  9.5619300000000003 17.5810299999999984
  6.0131800000000002  9.8367400000000007 16.0786400000000000
  7.0122200000000001  7.8693999999999997 19.4810400000000001
  1.3093999999999999  7.5449500000000000  3.5352700000000001
  1.2900000000000000  3.8740299999999999  1.1512800000000001
  3.8001399999999999  6.6154200000000003  3.2247200000000000
  3.2270699999999999  8.3156099999999995  0.1860000000000000
  3.8507199999999999  4.4743300000000001  1.6466200000000000
  8.2408400000000004 16.2704500000000003  3.5360700000000000
  8.2334899999999998 12.6174800000000005  1.0575800000000000
 10.7213200000000004 15.3271599999999992  3.2301600000000001
 10.1924600000000005 16.9768399999999993  0.1839900000000000
 10.7890899999999998 13.2029700000000005  1.6466200000000000
 12.5465499999999999  9.8731299999999997  1.0176799999999999
 12.5555599999999998 13.5400399999999994  3.6070099999999998
 10.0558099999999992 10.7990100000000009  0.7065300000000000
 10.5990900000000003  9.1507299999999994  2.7082299999999999
 10.0013500000000004 12.9167600000000000  4.1611900000000004
  5.6099800000000002  1.1796800000000001  1.0142500000000001
  5.6277200000000001  4.8039100000000001  3.5896800000000000
  3.0967899999999999  2.0661900000000002  0.7450200000000000
  3.6894000000000000  0.4250500000000000  2.7162899999999999
  3.0692100000000000  4.2130299999999998  4.1601800000000004
  1.3056600000000000  9.9013500000000008  1.0446800000000001
  1.2955399999999999 13.5160000000000000  3.5890700000000000
  3.8018000000000001 10.8216500000000000  0.7440099999999999
  3.2531200000000000  9.1501999999999999  2.7219300000000000
  3.8485100000000001 12.9075199999999999  4.1563499999999998
  8.2250399999999999  1.0976300000000001  1.0587899999999999
  8.2233800000000006  4.8084400000000000  3.5759699999999999
 10.6845999999999997  2.0973700000000002  0.6966500000000000
 10.2086799999999993  0.4362000000000000  2.7102400000000002
 10.7739899999999995  4.2003100000000000  4.1517200000000001
 12.5484899999999993  7.5682900000000002  3.5517900000000000
 12.5590299999999999  3.8663699999999999  1.1049300000000000
 10.0621899999999993  6.6192500000000001  3.2339899999999999
 10.6136400000000002  8.2685800000000000  0.1906400000000000
 10.0078600000000009  4.5150899999999998  1.6296900000000001
  5.6231499999999999 16.2458899999999993  3.5439300000000000
  5.6338200000000001 12.6246200000000002  1.0706800000000001
  3.1235400000000002 15.3290799999999994  3.2585799999999998
  3.6864900000000000 16.9780499999999996  0.1868100000000000
  3.0785000000000000 13.2402499999999996  1.6379500000000000
 13.8255999999999997  5.3305199999999999  2.8976600000000001
  0.0058200000000000  6.1072800000000003  0.3522600000000000
  6.9484899999999996 14.0300700000000003  2.8833500000000001
  6.9293600000000000 14.8702299999999994  0.3609200000000000
 13.8437599999999996 12.1119500000000002  0.3653600000000000
 13.8246300000000009 11.2838100000000008  2.8918100000000000
  7.0119600000000002  3.3601399999999999  0.3947800000000000
  6.9274199999999997  2.5410599999999999  2.9101499999999998
  1.3078700000000001  7.5400700000000001  8.5672200000000007
  1.3003899999999999  3.9029500000000001  6.1129100000000003
  3.7993100000000002  6.6161199999999996  8.2707800000000002
  3.2485499999999998  8.2644000000000002  5.2332700000000001
  3.8623599999999998  4.5072500000000000  6.6658799999999996
  8.2390399999999993 16.2509399999999999  8.5706500000000005
  8.2292000000000005 12.5979700000000001  6.1153300000000002
 10.7336600000000004 15.3306500000000003  8.2728000000000002
 10.1806800000000006 16.9832800000000006  5.2316599999999998
 10.7838300000000000 13.2182999999999993  6.6765600000000003
 12.5511300000000006  9.8699999999999992  6.0552700000000002
 12.5612399999999997 13.5180900000000008  8.6284799999999997
 10.0642700000000005 10.8017900000000004  5.7535999999999996
 10.6090599999999995  9.1489799999999999  7.7514700000000003
 10.0066100000000002 12.9165799999999997  9.1905199999999994
  5.6219000000000001  1.1746300000000001  6.0578900000000004
  5.6274499999999996  4.8080900000000000  8.6315000000000008
  3.1295000000000002  2.0923200000000000  5.7534000000000001
  3.6816399999999998  0.4417700000000000  7.7536800000000001
  3.0649199999999999  4.1923000000000004  9.1661400000000004
  1.3100900000000000  9.8766200000000008  6.0534600000000003
  1.2989999999999999 13.5196600000000000  8.6238499999999991
  3.8027700000000002 10.7957000000000001  5.7556099999999999
  3.2480000000000002  9.1465499999999995  7.7504600000000003
  3.8507199999999999 12.9082200000000000  9.1945499999999996
  8.2393099999999997  1.1721900000000001  6.0546699999999998
  8.2273999999999994  4.8140200000000002  8.6242500000000000
 10.7324099999999998  2.0911000000000000  5.7529899999999996
 10.1772200000000002  0.4395100000000000  7.7500600000000004
 10.7809200000000001  4.2069299999999998  9.1925399999999993
 12.5497399999999999  7.5460000000000003  8.5672200000000007
 12.5601299999999991  3.9033000000000002  6.0941700000000001
 10.0598299999999998  6.6201200000000000  8.2689699999999995
 10.5956200000000003  8.2741500000000006  5.2324700000000002
 10.0064799999999998  4.5056799999999999  6.6735400000000000
  5.6210699999999996 16.2542499999999990  8.5756800000000002
  5.6314700000000002 12.6092899999999997  6.1008199999999997
  3.1322700000000001 15.3283799999999992  8.2772299999999994
  3.6864900000000000 16.9824100000000016  5.2405299999999997
  3.0794700000000002 13.2135899999999999  6.6761600000000003
 13.8504100000000001  5.3068299999999997  7.9294099999999998
  0.0030500000000000  6.1586699999999999  5.4146400000000003
  6.9260400000000004 14.0203100000000003  7.9251800000000001
  6.9476599999999999 14.8531600000000008  5.4029499999999997
 13.8549799999999994 12.1088199999999997  5.4154499999999999
  0.0000000000000000 11.2653400000000001  7.9282000000000004
  6.9356000000000000  3.4096199999999999  5.4186699999999997
  6.9311600000000002  2.5596899999999998  7.9332399999999996
  1.3030200000000001  7.5541799999999997 13.6096500000000002
  1.3048200000000001  3.9085299999999998 11.1367999999999991
  3.7800400000000001  6.5905100000000001 13.3577499999999993
  3.2435600000000000  8.2659599999999998 10.2676499999999997
  3.8692899999999999  4.5500999999999996 11.6557200000000005
  8.2382100000000005 16.2566899999999990 13.6048200000000001
  8.2246199999999998 12.5965799999999994 11.1323699999999999
 10.7240900000000003 15.3309899999999999 13.2956900000000005
 10.1780500000000007 16.9808400000000006 10.2664399999999993
 10.7749600000000001 13.2121999999999993 11.7087199999999996
 12.5518199999999993  9.8767899999999997 11.0997199999999996
 12.5641499999999997 13.5429999999999993 13.6394800000000007
 10.0619099999999992 10.7976100000000006 10.7813199999999991
 10.5999199999999991  9.1516000000000002 12.7842300000000009
 10.0168700000000008 12.9143200000000000 14.2317499999999999
  5.6248100000000001  1.1687099999999999 11.0878300000000003
  5.6031899999999997  4.7748200000000001 13.6658799999999996
  3.1390600000000002  2.1032899999999999 10.7974399999999999
  3.6898200000000001  0.4478700000000000 12.7900700000000001
  3.0193200000000000  4.1139099999999997 14.1039800000000000
  1.3111999999999999  9.8731299999999997 11.1126199999999997
  1.3039900000000000 13.5245400000000000 13.6683000000000003
  3.7997200000000002 10.7934300000000007 10.7962299999999995
  3.2658700000000001  9.1259899999999998 12.7876499999999993
  3.8670800000000001 12.9550800000000006 14.2289200000000005
  8.2412500000000009  1.1673100000000001 11.0892400000000002
  8.2095199999999995  4.8194200000000000 13.6465300000000003
 10.7318599999999993  2.0912700000000002 10.7865599999999997
 10.1802700000000002  0.4440400000000000 12.7854399999999995
 10.7644199999999994  4.2041399999999998 14.2281200000000005
 12.5426699999999993  7.5468700000000002 13.6001799999999999
 12.5610999999999997  3.8996400000000002 11.1400299999999994
 10.0490200000000005  6.6209899999999999 13.3083799999999997
 10.6155799999999996  8.2673600000000000 10.2676499999999997
 10.0055099999999992  4.5058600000000002 11.7091200000000004
  5.6250900000000001 16.2430999999999983 13.5826499999999992
  5.6273099999999996 12.6063299999999998 11.1442599999999992
  3.1193800000000000 15.3438800000000004 13.2809699999999999
  3.6798400000000000 16.9885100000000016 10.2700600000000009
  3.0729600000000001 13.2094100000000001 11.7105300000000003
 13.8567800000000005  5.3162399999999996 12.9577399999999994
 13.8560900000000000  6.1543099999999997 10.4411500000000004
  6.9432200000000002 14.0121300000000009 12.9589499999999997
  6.9304699999999997 14.8552499999999998 10.4407499999999995
  0.0069300000000000 12.1042900000000007 10.4475999999999996
 13.8551199999999994 11.2780600000000000 12.9692200000000000
  6.9361499999999996  3.4035199999999999 10.4534500000000001
  6.9347700000000003  2.5487199999999999 12.9692200000000000
  1.2865300000000000  7.5775300000000003 18.6587400000000017
  1.2879200000000000  3.8785599999999998 16.1093100000000007
  3.7799000000000000  6.7295199999999999 18.2957999999999998
  3.2338600000000000  8.2854700000000001 15.3197500000000009
  3.8645800000000001  4.4621300000000002 16.5854999999999997
  8.2405600000000003 16.2617399999999996 18.6456400000000002
  8.2283700000000000 12.6143400000000003 16.1754099999999994
 10.7294999999999998 15.3308199999999992 18.3314699999999995
 10.1863600000000005 16.9731799999999993 15.2989999999999995
 10.7817500000000006 13.2066199999999991 16.7499399999999987
 12.5414200000000005  9.8889899999999997 16.1193799999999996
 12.5656800000000004 13.5283700000000007 18.6887599999999985
 10.0438899999999993 10.7951700000000006 15.8281899999999993
 10.6248600000000000  9.1500299999999992 17.8252500000000005
 10.0165900000000008 12.9219799999999996 19.2743800000000007
  5.6087400000000001  1.1988399999999999 16.1439699999999995
  5.7149000000000001  4.7765599999999999 18.7300700000000013
  3.0893099999999998  2.0372699999999999 15.7739799999999999
  3.6709700000000001  0.4351500000000000 17.8137599999999985
  3.0072600000000000  4.1710399999999996 19.2929199999999987
  1.2912399999999999  9.9124999999999996 16.0732399999999984
  1.3016399999999999 13.5207099999999993 18.7050899999999984
  3.7948700000000000 10.8171199999999992 15.7818400000000008
  3.1757900000000001  9.2529800000000009 17.8312999999999988
  3.8541900000000000 12.9190199999999997 19.2725700000000018
  8.2336299999999998  1.1437999999999999 16.1088999999999984
  8.3048699999999993  4.7636700000000003 18.7478100000000012
 10.7233999999999998  2.0865700000000000 15.8203300000000002
 10.1779100000000007  0.4417700000000000 17.8182000000000009
 10.8546499999999995  4.2267900000000003 19.2739800000000017
 12.5455799999999993  7.5069699999999999 18.6462399999999988
 12.5616599999999998  3.8994700000000000 16.1717799999999983
 10.0595599999999994  6.6244800000000001 18.3403400000000012
 10.6080900000000007  8.2689299999999992 15.3054400000000008
 10.0303100000000001  4.5039400000000001 16.7555799999999984
  5.6221800000000002 16.2633100000000006 18.6373800000000003
  5.6300800000000004 12.6133000000000006 16.1842700000000015
  3.1315800000000000 15.3283799999999992 18.3443700000000014
  3.7146300000000001 16.9529700000000005 15.3036300000000001
  3.0750299999999999 13.2123699999999999 16.7525599999999990
  0.0464300000000000  5.3068299999999997 17.9753800000000012
 13.8495799999999996  6.1555299999999997 15.4706899999999994
  6.9325500000000000 14.0302399999999992 17.9957400000000014
  6.9270100000000001 14.8623999999999992 15.4712899999999998
 13.8255999999999997 12.1419099999999993 15.4852000000000007
  0.0022200000000000 11.2726600000000001 17.9929099999999984
  6.9563899999999999  3.4002100000000000 15.4894300000000005
  7.0001800000000003  2.5302500000000001 18.0110500000000009
  4.0868799999999998  5.0338599999999998 18.2160000000000011
  4.0292300000000001  0.8149100000000000  1.1714400000000000
  2.8222499999999999  3.6641200000000000  0.6609900000000000
 10.9573400000000003  9.5367499999999996  1.1645799999999999
  9.7820999999999998 12.3938100000000002  0.6466800000000000
  9.8324099999999994 16.5986499999999992  3.6858000000000000
 11.0094499999999993 13.7365399999999998  3.1721300000000001
  2.8993000000000002  7.8799400000000004  3.6864100000000000
  4.0810599999999999  5.0206200000000001  3.1650700000000001
  4.0368500000000003 16.5881900000000009  3.6983000000000001
  2.8427600000000002 13.7382799999999996  3.1731300000000000
 10.9545700000000004  7.8916100000000000  3.6878199999999999
  9.7725399999999993  5.0277599999999998  3.1622499999999998
  9.8268599999999999  0.8079400000000000  1.1686099999999999
 11.0158299999999993  3.6804999999999999  0.6545400000000000
  2.8926500000000002  9.5601000000000003  1.1857400000000000
  4.0853599999999997 12.4115800000000007  0.6533300000000000
 13.8497100000000000  4.8121000000000000  1.3542099999999999
 13.8524899999999995  6.6514800000000003  3.8564900000000000
  6.9376800000000003 13.5477100000000004  1.3260000000000001
  6.9411399999999999 15.3480699999999999  3.8462100000000001
 13.8479100000000006 12.6018000000000008  3.8611200000000001
 13.8440300000000001 10.7965699999999991  1.3332599999999999
  6.9282500000000002  3.8797799999999998  3.8568899999999999
  6.9396199999999997  2.0412800000000000  1.3552200000000001
  4.0350500000000000  0.8305900000000001  6.2094399999999998
  2.8459500000000002  3.6853799999999999  5.6862899999999996
 10.9612200000000009  9.5346600000000006  6.2068199999999996
  9.7775200000000009 12.3931100000000001  5.6897200000000003
  9.8265899999999995 16.5934199999999983  8.7213799999999999
 11.0154099999999993 13.7382799999999996  8.2042800000000007
  2.8954200000000001  7.8811600000000004  8.7217900000000004
  4.0839699999999999  5.0240999999999998  8.1966199999999994
  4.0333800000000002 16.5967300000000009  8.7260200000000001
  2.8477500000000000 13.7349700000000006  8.2048900000000007
 10.9626099999999997  7.8836000000000004  8.7211800000000004
  9.7750299999999992  5.0281099999999999  8.2014600000000009
  9.8268599999999999  0.8276200000000000  6.2050000000000001
 11.0106999999999999  3.6841599999999999  5.6810499999999999
  2.8970899999999999  9.5315300000000001  6.2043999999999997
  4.0835499999999998 12.3889300000000002  5.6848799999999997
 13.8577499999999993  4.8284799999999999  6.3706500000000004
 13.8558100000000000  6.6354499999999996  8.8799799999999998
  6.9329599999999996 13.5320300000000007  6.3694400000000000
  6.9296400000000000 15.3440600000000007  8.8813899999999997
  0.0013900000000000 12.5901300000000003  8.8900500000000005
 13.8583099999999995 10.7814099999999993  6.3670200000000001
  6.9307499999999997  3.8851800000000001  8.8942899999999998
  6.9318600000000004  2.0813400000000000  6.3712600000000004
  4.0364300000000002  0.8325000000000000 11.2425999999999995
  2.8495499999999998  3.6940900000000001 10.7039399999999993
 10.9627499999999998  9.5341400000000007 11.2397799999999997
  9.7746099999999991 12.3890999999999991 10.7156199999999995
  9.8264499999999995 16.5951599999999999 13.7525300000000001
 11.0111100000000004 13.7396799999999999 13.2328100000000006
  2.8933399999999998  7.8783700000000003 13.7757100000000001
  4.0659500000000000  5.0035499999999997 13.2122600000000006
  4.0407299999999999 16.5902899999999995 13.7460799999999992
  2.8453900000000001 13.7487399999999997 13.2317999999999998
 10.9541500000000003  7.8863799999999999 13.7561599999999995
  9.7617300000000000  5.0293299999999999 13.2338199999999997
  9.8292199999999994  0.8267500000000000 11.2385699999999993
 11.0130499999999998  3.6838099999999998 10.7194500000000001
  2.8987500000000002  9.5261300000000002 11.2492500000000000
  4.0807799999999999 12.3868399999999994 10.7226800000000004
  0.0006900000000000  4.8284799999999999 11.4017999999999997
 13.8537300000000005  6.6424200000000004 13.9099199999999996
  6.9307499999999997 13.5294200000000000 11.4011999999999993
  6.9337999999999997 15.3402300000000000 13.9087099999999992
 13.8531800000000000 12.6094700000000000 13.9224099999999993
  0.0019400000000000 10.7849000000000004 11.4104700000000001
  6.9225700000000003  3.8768199999999999 13.9276499999999999
  6.9335199999999997  2.0749000000000000 11.4044200000000000
  4.0293700000000001  0.8129900000000000 16.2679000000000009
  2.8308399999999998  3.6386900000000000 15.6607199999999995
 10.9576200000000004  9.5374499999999998 16.2751599999999996
  9.7750299999999992 12.3906700000000001 15.7568500000000000
  9.8304700000000000 16.5949899999999992 18.7907299999999999
 11.0163799999999998 13.7375900000000009 18.2734300000000012
  2.8753299999999999  7.9558900000000001 18.7866999999999997
  4.0326899999999997 16.5949899999999992 18.7905300000000004
  2.8470499999999999 13.7361900000000006 18.2796799999999990
 10.9674600000000009  7.8855100000000000 18.7983900000000013
  9.8283900000000006  5.0246199999999996 18.2835099999999997
  9.8257499999999993  0.8161300000000000 16.2697199999999995
 11.0159599999999998  3.6763200000000000 15.7485900000000001
  2.8751899999999999  9.5738599999999998 16.2584300000000006
  4.0852199999999996 12.4101800000000004 15.7498000000000005
  0.0116400000000000  4.8208099999999998 16.4160199999999996
  0.0105300000000000  6.6176800000000000 18.9517500000000005
  6.9303299999999997 13.5423100000000005 16.4398000000000017
  6.9304699999999997 15.3536400000000004 18.9523499999999991
 13.8585799999999999 12.5953599999999994 18.9600100000000005
 13.8436199999999996 10.8070199999999996 16.4258999999999986
  6.9903399999999998  3.8496500000000000 18.9896299999999982
  6.9428000000000001  2.0728100000000000 16.4420199999999994
