 O Si Au 
 1.0000000000000000
    13.7065166200000004   -0.0000588000000000    0.0000243500000000
    -6.8533092299999998   11.8701637400000006   -0.0000225700000000
     0.0000263400000000   -0.0000129700000000   14.8090446000000000
 O   Si  Au 
  72  36   8
Cartesian
 11.4336957885797244  1.0464458482992576  1.9024073321787311
  4.8993066087770867  4.9281959000890119  6.4332528400608489
 -2.3225560458287724  9.0455166997541916 11.7804572030533024
  6.5342217043901192  9.6108120885811523  1.6658783943963729
  6.6682242131938043  1.6112693125958442  6.5671468671484767
 -0.3208615990991254  5.8538974143630531 11.7325441513767181
  1.6719439057205896  1.1965736954935908  1.9122463145418562
  8.7154825068077795  5.1800581412318403  6.7722131064526048
  1.7717617183262697  8.9865180823389643 11.9358220687366661
 -5.0887454253149791 10.8939817266303578 12.8728019338763833
  8.4536255563919660  2.8367727354374606  3.0962424112165010
  1.6566849678150932  6.8173552411371707  8.1742873396156028
 -0.2263779586259648  2.1842357178141674 13.2249824630340154
  6.6364286540183421  6.1561918365255925  3.3083484432047703
 -0.1280272675375645 10.1698827943331462  8.3216986080806201
  4.6043414173286727 10.6642122962541617 12.9112688180333404
  4.5761282733897399  2.7327310289241025  3.2260942007840172
 -2.1374736909973300  6.7980126852886276  8.1161983584978028
 10.7868855146728428  3.6884649227133588  2.2860229881909979
  4.1723494057614374  7.4358779514966118  7.4605933532581092
 -2.5462583669527583 11.5816916987543674 12.5160321214488004
  4.5872644124258404  7.8706803140724046  2.5204699930615084
 -2.1477430950327543 11.8601797285665249  7.4932816565693932
 -1.9080542517501000  3.8871996100081332 12.2527517665940682
  4.1280191925194369  0.2784115512058176  2.5004588845859117
 11.0898503678781424  4.2991000171919165  7.2950250555467164
  4.2579188069051339  8.0939543903620432 12.3392333426942358
  8.9723221134297937  0.2556911796642433  2.4728564911151820
  2.4115555227159176  4.3109925885615752  7.5142176969098262
 -4.7140265761214524  8.2810382465435506 12.4022646741076699
  2.1328460262180120  3.7007158696438749  2.6389706669762640
  9.0342462133533932  7.7635650274957868  7.4669096161172543
  2.0871457266667730 11.6272510904160864 12.4139615684752780
  8.4077872520234411  7.7929156966515949  2.2890673114110638
  8.7311418191148729  0.0691850710065147  7.5235804035696656
  1.5319001324541490  4.0192474690698239 12.5098802432547043
 -0.3523770219640584  2.9451695839394243  1.8109816789283537
  6.7002236395085282  6.7298085031097159  7.0373186489461608
 -0.2061666625917897 10.6069628533526963 11.6972752667860149
  4.0079903352246591 10.4240248989290958  2.1172211823914173
  4.1237318996811991  2.4927375641321317  7.2068059648665832
 -2.8379301031976363  6.3614750919224141 11.9421276450306415
 -4.7145633858433822 10.4674370814570441  1.9967568766612451
  9.0110944862861526  2.6311207953017544  7.2361248834491247
  2.4199794610171623  6.3177093460183009 11.7658146155321770
  6.5740462264933353  9.0400687004945901 13.0228031719743278
  6.6411979110393240  0.8870608283877869  3.3958092116578449
 -0.2254037614459885  4.9599639340702248  7.8244921387925856
  2.3704313619302662  1.5248094435284341 12.9208651154528091
  9.0894466222565722  5.4440248882082241  3.3080553186395436
  2.3172639284403482  9.4020676338497520  7.7646753324637388
 11.0789386707030690  1.3436149302192533 12.6850746988362690
  4.2837442703020256  5.3099713043212127  3.2673243953871611
 -2.5531220367699254  9.2829106336365363  8.1307761331470818
 11.3579626373435474  2.9691147649188809 14.7541013702932595
  4.9810741109176737  7.2749145047526245  5.0279730030431153
 -2.1365761037749236 11.0647351129931124  9.9774779834294005
  4.6258196072895013  8.7921792143123803  0.0791437549965083
  4.6487069914539223  0.9469770730627329  5.0679653363128550
 -1.9172633824397363  4.8634866082227157  9.8316250806203787
 -3.5925583554466196 11.8362269614276556  0.0945926110316514
 10.1720279812089949  3.7419628416277662  4.9646197863735875
  3.2972492119810934  8.0508578598799492  9.8499580419541797
 10.0062499467425088  0.0171597465885261  0.0009174107702262
  3.0329879385921634  3.7119130703895871  5.0244247115073133
 -3.7325787211101820  7.7994858284838218  9.9675904527281087
  1.6579538970162919  3.0544429264401112  0.1278519357553227
  8.3007399064167284  7.2754402178384350  5.0487490293697022
  1.8990925950562774 10.7483341985817589  9.9872081601097076
  8.4624991179014675  8.9239530283609412 14.7510117670219802
  8.8321352963364355  1.1637581220572750  5.0529052640942531
  1.4432078968435027  4.7734852246872030  9.9143261672525522
 11.7749703385114799  2.6632110371360485  1.5065536521301290
  5.2005408078776574  6.5599345494332404  6.5065965533646093
 -1.8247983695003505 10.5521740991125093 11.5080840807456504
  4.8932067998668369  9.1623710726524976  1.6194893533126280
  5.0653245484574523  1.2761561416976748  6.6134082126263332
 -1.7952888033848318  5.2366533704076357 11.3942660270093921
  2.7593938345412541  0.0441301045558814  1.6277898705321077
  9.6804523982203872  3.9504935742924157  6.5466889572855695
  2.9306653705139043  7.8906171569006869 11.4451447210212578
  3.4095582844249561 11.8133338572072333  1.5853322216910430
  3.6430860708281672  3.8984179029247845  6.5359343155090031
 -3.4092843940647999  7.8700930021026210 11.5757012679920717
  1.2604859679561082  2.7577311253101109  1.6545680251255599
  8.2507067415215776  6.7050489640955133  6.6052700664324799
  1.3604713877208743 10.5717036754828815 11.4916755254055794
  8.0827013436736834  9.1822085107899643  1.5033926848507579
  8.2681305064507509  1.3105864548242792  6.6027704638905718
  1.2187288200669590  5.2518919602916023 11.4624368080694641
  8.1106316461508978  9.3776448790067377 13.2175118146329780
  8.2195523396216448  1.2792338133446173  3.5159213169784627
  1.3290539909696319  5.1760953761977566  8.3011931178305822
  1.2845465814824273  2.6746358554230345 13.3923611306462753
  8.1518162821715450  6.7372170643273677  3.5244904095327740
  1.4672000994188892 10.6502582091181015  8.3909045753235088
 10.3097713495418848  0.0137527399591457 13.1982444707070261
  3.5013303196979635  3.9068541819806679  3.5070832585824485
 -3.3511394864109918  7.9151267729825454  8.4169307858692974
  2.9541622931782157  0.0703631998712929 13.3015279939752880
  9.6749599491491765  3.9546042070296590  3.4503681390246879
  2.8472322227851405  7.9101032881795517  8.3298997170093401
  4.9897345989819790  9.1659087323945503 13.3405663583433221
  5.0181365446145794  1.1788914676702813  3.5487414457201480
 -1.7972915828710827  5.2204804351157943  8.2821885573468155
 11.9324485785556558  2.6031693696378495 13.2445451194986443
  5.0990554122190854  6.6766169658080043  3.5421409746339609
 -1.6924492095823254 10.6104193661394568  8.4861558069619925
  6.5415603181988811  3.7449620809750050  8.6378018120342670
  6.8030353690823091  2.0847037250501801 12.2319163529195354
  6.7462911581419140  1.3260291129039805  9.7549796630929979
  6.7452788720645227  4.6619919617075247 11.7947930544282684
  8.6514234231795264  3.3159242977326744 10.4645511976746395
  4.8905775967279030  3.0118580900223502 10.4713231786147798
  7.9964199557663358  5.8931901528876818  9.7750490268412555
  5.1579403272592144  5.7828733526862788  9.9054817013871048
