 O Si Al Cu 
 1.0000000000000000
    18.2560000000000002    0.0000000000000000    0.0000000000000000
     0.0000000000000000   20.5339999999999989    0.0000000000000000
     0.0000000000000000    0.0000000000000000    7.5419999999999998
 O   Si  Al  Cu 
  97  46   2   2
Cartesian
  5.2027852900800005 20.4477463169799982  0.0551924314200000
 14.1547047096000007 10.2632108609799992  0.0186855312600000
 13.2082411932799992 20.5323650829199984  0.0138292374600000
  3.9044474145599999 10.5237988200199979  7.3114826918400002
  5.1321024395200006  0.0949346368600000  3.7487072809799997
 14.3132551486399997 10.2554679002599993  3.7857743254799998
 13.1857443244799999 20.5095998584799979  3.7791815615999997
  3.8953772860800000 10.0107594994399989  3.5573572380599998
  5.9294838086400006  1.7718314264599999  1.8022136185800000
 15.1526253177600001 11.8991193224999989  1.8671663030400001
 12.2777288569599996  1.6267632339399998  1.9074580804799999
  2.7913464163200001 11.7030875900399991  1.8837670746599999
  5.9701702256000004 18.8933383281599987  5.5720278653399999
 15.1661349403200010  8.6362447511199996  5.7262191530399997
 12.2409981500799994 18.9050209421200002  5.6955411629999997
  2.8793485515200001  8.7123948847800001  5.7022995492000002
  6.9123350016000007  1.7974617599199998  6.8963182932599993
 15.9985110532799997 12.0711490676999986  6.9312754632600004
 11.3182086494400007  1.8126150305600000  7.0305916868999994
  2.2992772958400001 12.6460211904399991  7.0381767517200000
  6.8905860811200004 18.7655412830399975  3.1089047140799999
 16.1613971097599993  8.3975714982399996  3.3322655692800001
 11.2516536630399990 18.7021064181999996  3.2910710144399999
  2.2679220681599999  7.9310367594999995  3.2885489696399999
 11.3878021644800000 18.7019248976399979  0.6264007345799999
  2.2487760881600001  8.7036443206799987  0.7330453687799999
  6.8293233265600000 18.3609485873400011  0.4550170053600000
 15.9797568470400009  8.4537455406799999  0.6700453835400000
 11.3761953647999992  1.8131267378400000  4.3493086436399997
  2.2353767318399997 11.8335177099799989  4.4947268506799993
  6.9362874212799994  1.9714980875999999  4.2140519994599996
 16.1402599478400006 12.1229957749799997  4.2559575386399997
  4.3455012383999998  2.3895033867600000  7.2813786479999996
 13.4909892084800003 12.7637200250399996  0.0081845029800000
 13.8659238166400005  2.4976344040599998  7.5255116041800001
  4.7637064003200003 12.8738726146399998  0.5428869618600000
  4.3402168566400006 18.1643230115999970  3.5672919375599998
 13.6038709855999986  7.7601487046999988  3.7652092524000000
 13.8008221904000017 18.0075044429199984  3.7524106292399999
  4.7815016188800001  7.6689627548799990  4.2484349215800004
 13.9122865716800010 18.0269002432999983  0.0116097777000000
  4.7256325995199999  8.0494532573999997  0.0003813235200000
  4.2312792883199997 18.0304715165799969  7.3575655185599995
 13.4685985895999991  7.7611230429999996  0.0206315935200000
 13.9237962494400005  2.4830645043599997  3.7994708237400001
  4.6371581816000003 12.5563120458999986  3.5627460724800000
  4.3287363884800003  2.5386783792799998  3.7729518696000000
 13.5571978785600002 12.7425788346599980  3.8213841047400003
  5.8647314196800000  6.9465723227399989  1.9684252704600000
 15.0840784192000008 16.6155932897999996  1.9275087891599998
 12.3228036512000010  6.3539078996800002  1.9499962426199999
  3.0658151529600004 16.6896980317199990  1.8174487602600000
  5.6645916219199997 13.8874136060799991  5.7872674195200000
 15.1029784908800000  3.9199403946599998  5.6975768996399996
 12.3088429228800003 14.1767602534799995  5.6759162002199997
  3.3220826576000002  4.1621857421800001  5.5906977846599997
  4.5402281321600002  5.0237545996200001  0.2408235265800000
 13.6946306896000003 15.4007887080400003  0.0264083130000000
 13.7178446540800003  5.1382996171599995  0.0429645868200000
  4.7662324830400005 15.4936707662599993  0.2137324363200000
  4.4592423254400000 15.5133029129799986  3.7620907862399999
 13.7364604798400016  5.1147384948800001  3.7866722760000000
 13.7082518563200004 15.3721008619799999  3.7888740874800000
  4.7826495561600000  5.1073823947199992  3.5462598638399996
  6.9143482732799999  6.4375200889399995  6.8861414955599995
 16.0498370670399986 16.5430244910800006  7.0635483414000007
 11.3577757910400017  6.2565681153999995  7.0885677196799994
  2.3320473635200001 16.2230519986999973  6.9023574743400005
  6.7852927755199994 13.9110071720799979  3.0525582058200000
 16.0772374974400023  3.9384864981199996  3.2849493238799998
 11.3990719584000004 14.1634665418800001  3.2439372854399999
  2.3384853419200002  4.1982101811000003  3.1299292457999996
 11.3720762635200003 14.2057901959799988  0.5722776079200000
  2.2281703584000003  3.7607702722999994  0.4614666220800000
  7.0283989820799997 14.1950737067199988  0.4795671958200000
 15.9986351940800002  3.8962269100999998  0.6245669727000001
 11.4736363996800002  6.3695763683799997  4.4316030258000003
  2.1912054270399999 16.8296594184399986  4.2884592597000006
  7.0600043169600006  6.3225099762999992  4.2268129880400007
 15.9674387935999995 16.6426408799400001  4.4044008418799994
  0.0193666950400000  8.0325827283399995  1.8866368056599998
  9.1005113931199997 18.2083199813599990  1.8328846699799999
  0.0172862412800000 12.5053700666600012  5.7170941626600005
  9.1414216286399999  2.2892323739800000  5.6362705459200004
  1.8523123617599999  6.1709226494600005  1.3874107080600000
 11.0983761044799998 16.4392333346800008  1.9280562629400000
 16.3658851216000016  6.1655684089599996  1.8980523014399999
  7.1993430543999999 16.3513929894800008  2.1261387475800002
  1.8287535414400000 14.3614941791399993  5.1023780224199999
 11.1645411427200010  4.0599646154199993  5.6586950236800000
 16.3372892883200009 14.3502462699599995  5.6484060764399997
  7.1968596907200002  4.1205407367799998  5.6773222552800000
  0.0335141822400000  4.3018064698399998  1.8823464635400000
  9.1588792937600001 14.5703274232199984  1.9471887331200002
  0.0039064188800000 16.2126116917400012  5.6609621488799995
  9.1989831617599993  5.8870458489799997  5.6518394965199992
  6.4228565900800003 10.4748005892200009  1.8334183418999999
  5.5892697392000006  1.4802880517399999  0.2412936194400000
 14.7081442950400003 11.7552351204200001  0.3194523459000000
 12.6606758409599998  1.4897798932399999  0.3442222348200000
  3.4281434454399999 11.9373064022999991  0.4091958106200000
  5.5779236352000003 19.0973216467799993  4.0103680714199994
 14.8090813539199999  8.7572021261799993  4.1544837750600001
 12.6117731286399994 19.0321428293199979  4.1264577784799998
  3.4442313628800001  8.5778160754799995  4.1901758375399991
 12.6826909339200000 19.0307292687599983  7.2474269774400000
  3.4309152539199999  8.9691926781000006  7.2045421849799993
  5.5632814104000001 18.9362451478599993  7.1408877049799990
 14.6971215048000019  8.7631424070400001  7.2697911191999998
 12.6924965966399999  1.4894482691399999  3.4635834039599995
  3.3788987982400003 11.5461499241599981  3.3914977975800000
  5.5911238185599998  1.6020881421600000  3.3791941558799996
 14.7855939145599997 11.7629146310799992  3.4353240578999999
 14.6693720196799990 16.6447663542799980  0.3676270971600000
 12.7340603969599986  6.3691122999800003  0.3897736522200000
  3.5985265108799998 16.6151969835999971  0.2951085799800000
 14.6952624963199998  3.8648680013200001  4.1368110589800002
 12.7599979740800009 14.1160116465199987  4.1275101137399997
  3.6883407366400003  4.0027727025999997  4.0194050466600002
 12.7330017315199999 14.1496561948399986  7.2333784186199992
  3.6380377891200002  3.8538743030600000  7.1647708055399999
  5.5377210022400005 14.1379015065399987  7.3456599436200003
 14.6607394875199990  3.8721070576799996  7.2501579356399999
 12.7937648193599998  6.3893686802999996  3.4944473797200000
  3.5458311145600003 16.7640126311200000  3.3698602520999996
  5.6212807223999999  6.4818548429999998  3.5127043745400002
 14.6341070870400021 16.6562308971599968  3.4783934785199997
  1.5927304803200000  7.6997044116200000  1.8273574398600001
 10.7036490713599992 18.0141149535399983  1.9234546624800002
 16.6874391857599988  7.7484977130999990  1.9435816207800001
  7.5032426537600001 17.9312115979599973  1.8685764307800001
  1.5874904606400000 12.8428968702999988  5.5903421793599994
 10.7400842136000012  2.4964941510399998  5.6737904875199998
 16.6800162961599980 12.7710935790999986  5.6404647275400004
  7.5437775459200003  2.5465658993599996  5.6055760388999998
  1.6247845476799998  4.5912455202399993  1.7212793607000001
 10.7544944046400008 14.8552672688799987  1.9246626646199998
 16.6953591862400010  4.5755887559200001  1.9228992695999998
  7.5600799713600004 14.7927903151399978  1.9027741968000000
  1.5923715673600001 15.9279652769399984  5.4922166866800000
 10.7850817849600009  5.6357433647399997  5.7044568628799999
 16.6660258105600008 15.9384727300799991  5.6895737063400000
  7.5916960772800000  5.6969827342999997  5.6457651697199998
  5.4845401788799997  6.4428123167599995  0.2916497433600000
  5.3411091764800007 14.1033245092800001  4.1177651709600003
  5.7559857219199992  8.8826981312599997  1.5386972698800001
  6.1672291408000000 12.1434080083599980  2.3230951362000001
