 O Si Au 
 1.0000000000000000
    13.7029250099999995    0.0000001400000000    0.0000007200000000
     0.0000001300000000   12.6471261899999998   -0.0000012000000000
     0.0000009800000000   -0.0000017600000000   18.5380665200000010
 O   Si  Au 
  96  48   8
Cartesian
 13.4823517958178378 12.3740019627457620  3.3289965583793237
  6.7650485322109608  6.1695065675684893  3.2473406894850290
 13.6083779359566979 12.3568595737029625 12.3337174110374121
  6.7210267218794044  6.1507677214660728 12.3424694592097346
 13.6208730136832106 12.4500273021126180 16.1477868515096077
  6.6279200589260219  6.1568362284342708 15.9453224754112348
 13.4710544617804828 12.5272537005550042  6.6950007387313555
  6.7149776763475550  5.9696009572029558  6.6957041548175367
  1.7781397734158235  0.3941573569472768  4.9150304448561002
  8.7205568805034961  6.5918181227223709  4.9781249017433469
 11.3549189344703514  0.2185967465708495  4.9722012495753001
  4.7107791418532905  6.4958462576832883  4.8967891186857662
  1.8377101508242843 12.0419962958994979 14.2027693657269420
  8.5306248161061387  5.7835805132977551 14.2033550018329446
 11.7364189818495426 12.1690807895276247 14.2247065240369466
  4.7541007371958148  5.9045183710567093 14.1497041443718761
  1.5708544228102204  1.6304452681564419  2.6364909781566532
  8.5059469162497994  8.0478191034480844  2.8622487907756855
 11.7932891103672759  1.7363861575819812  2.8214191000816653
  4.8273495497836354  7.9994713950371210  2.6925181433941070
  1.6941844915375193 10.4151686996129875 12.1262064871492949
  8.7143470695392988  4.2046716144784400 12.1509919133192472
 11.7312135229882450 10.3957783539917639 12.1342569863756644
  4.8966036335571363  4.2244045092680240 12.1276693401217397
 11.9407886121279994 10.5075215119215208 16.3600083231155544
  4.9740973111992668  4.0621316343863878 16.1501900972303503
  1.4061118087145337 10.2301397219392083 16.1322146298369091
  8.4457409143301110  4.2774760346983136 16.3965774767595178
 11.8157596584020013  1.8353036223135339  6.9173490898904664
  5.0949880484527181  8.0775176667186308  7.0266760210164447
  1.7015922154468053  1.6602128848231266  7.1811346949512878
  8.3132722283734672  8.1173164325778977  7.0534674000749167
  2.1354418868920737 11.7569469962698037  2.4822527773986249
  9.2464844601616036  5.5332248045394357  2.5877992963929546
 10.9475681044037128 11.8569906468101163  2.6251042346775004
  4.3963373010582272  5.3462504030311830  2.5582002553806897
  2.4906746970774631  0.3333462933597063 11.7913427110627662
  9.2478537552888547  6.7995608015219453 11.9879477316707543
 11.1570837273470289  0.3503605611648692 11.7871424389386679
  4.1512013889934023  6.8792630737755012 11.8973176298059542
 11.0160270333644270  0.2617743131510152 16.6633379893469282
  3.9592104955875502  6.4502327785234694 16.5356603619748554
  2.5061230752772397 12.6332881685930989 16.6955768467457943
  9.1870653533704125  6.8544798841035144 16.5163037053903352
 11.1539095997962026 11.7940059980174414  7.3103844105699176
  4.1242113018109210  5.5601808979438072  7.2740201760238508
  2.3047602717137816 11.7555013665990629  7.1619654079887463
  9.3516197225713533  5.7088510709394304  7.3852145402809608
  2.1771657871504195 10.4394991169063829  0.1638116755700236
  8.6136506492676883  3.9184536989464389  0.6134512113780147
 11.3575048154692464 10.4171771336723165  0.4352856453615928
  4.8740710100498790  4.2283455995003534  0.2123211506527064
  1.6398147802847496  1.8656971865180803  9.9182347756232652
  8.7257151953347822  7.9089879230521740  9.6364724623098130
 11.7047007507290317  1.9706684585832568  9.6880127148219728
  4.8049386484343248  8.1211101607402298  9.6591133329544139
 11.6496455918775066  1.6858367295076842  0.1726256299254412
  4.6404317867334797  8.1411695374389925  0.0765034765630320
  1.6673908627602065  1.7201638655683311 18.5197182076768669
  8.8932824241280191  8.2875197141679564  0.1611705581661076
 11.7002450446023758 10.4243774290654105  9.4440479909789179
  4.8879913436611213  4.4025745662309248  9.4720366064776691
  1.6207514695127330 10.5363419594749992  9.3951380990821729
  8.5279764517173824  4.1546358016807519  9.3345283028998072
 13.5781603808998490  9.3056042576800060 18.0761362919985302
  6.7303056272130997  2.8141409257825298 17.6015850324094991
  0.0003901856338636  3.1283076042990059  8.3665440854226922
  6.7064722672522770  9.4574553426083590  8.5426243252422509
 13.5761505812879086  3.1978591364620397  1.2779274015111539
  6.6686222107716855  9.2659061982781505  1.2945046849369339
 13.5099830016936906  9.1260624376687272 10.6536668748624770
  6.7441126084328795  2.8404283719243728 10.7850812447532540
  2.1671373753658787  8.0697702705772336 17.5748016077494214
  9.2548220739987208  2.0225312762689147 17.5383244589287948
 11.2449272629688899  8.2194272224654643 17.5725695311775816
  4.1364053455583560  1.8842777888329072 17.3699260752653686
  2.5374701784706364  3.7823428827184018  8.3864384681394561
  9.2155275704014823 10.2262146295675240  8.2456054431637593
 11.1250547705544420  4.0151113203483986  8.2189050140950943
  4.1163100258336955 10.2933957240673344  8.3331345037393554
 11.1498553424404783  3.9488652929496566  1.5715210505676831
  4.2161522020421547 10.2664426714578596  1.7165420835357061
  2.5738125752757681  3.7606323411234421  1.5074165399281310
  9.0454809187924727 10.3543052096931074  1.7753793713734920
 11.0409969666269987  8.2564499116563610 10.9124830772732118
  4.1085444834904088  2.1491054484863166 10.7166844192986161
  2.4113721915134283  8.3754322429287811 10.6297593015790035
  9.2756435855503803  1.9696846352583153 10.7943212035026868
  9.7228452256226525 12.4532855214008720  0.3730673512818812
  2.9646081789458050  6.0994513292709991  0.4265258214762149
  3.6472661895208915 12.6116531347277814  0.5643998846213396
 10.2554852449089093  6.0167088670989317  0.1977077058878176
  9.9944241181700519 12.5345482585620971  9.5268932081231643
  2.8722909635822922  6.1494174802224695  9.6227167055847875
  3.5457168823536644 12.5416397010360576  9.4030055653886357
 10.5336408803363391  5.9158184140336383  9.8413515646080061
  1.2964641991266053  0.2263010458014360  3.3697680257808380
  8.3142495869756896  6.5068988837377288  3.4307040916739404
 11.8940315242461345  0.2073509472865082  3.4313607542831557
  5.1727124727885627  6.5135633893360074  3.3456221720159540
  1.4513343083569699 11.9749704671892836 12.6238058494425740
  8.3026857572061203  5.7019521842598611 12.6620591780015896
 12.0810607520478293 11.9140479748561354 12.6542867027186023
  5.1037443510312670  5.7742579286764837 12.5919105885843141
 12.0972509256725669 11.9989404981477996 15.8105402689345418
  5.1310163495217429  5.6670180981718934 15.6975926989074406
  1.4245922587921822 11.8806748350794376 15.8162546345236219
  8.2179096244124210  5.7221459342229490 15.7689983366367255
 11.9221180260422628  0.2796910770096043  6.5294224046055778
  5.2027764447082978  6.5748190697731195  6.4650470913516545
  1.3746110490996022  0.2334963330764949  6.4872088235127716
  8.2867149579950397  6.5945088985195648  6.5455371264056197
  1.4400786903421454  9.5399480907366847 17.6116150640700688
  8.2390376916789574  3.2780069174149329 17.6688469198056808
 12.0903506208292804  9.6402954200989939 17.7276894930986408
  5.1379091283830345  3.1823853939105780 17.5152992978011426
  1.4772525271046077  2.5521719483592462  8.4823518899996220
  8.2391249618899138  8.9220605255021113  8.4655587479589283
 12.0798752606656699  2.6674010527813579  8.2968655478443516
  5.1599706874947806  9.0094249549346230  8.3577005846338874
 11.9939182304785081  2.6251381690594098  1.4388164713337928
  5.0975640474886914  8.9584121657619775  1.4094549182992386
  1.3730166037591085  2.5996493034258785  1.3539319629041977
  8.2609010098701940  8.9634511814294964  1.5267876976977064
 11.9591448829406168  9.5715761475419434 10.7808178663195555
  5.1671209412259573  3.3294090060504109 10.7382522910409897
  1.4057800421005264  9.5591115435337564 10.7228730638503276
  8.3440742203374469  3.2623955824303006 10.7599944648844197
 10.2724639656929853 11.2871957440099564  1.2830357368951104
  3.7229791879070113  4.8540054050516188  1.1793885609665578
  3.0468318544840138 11.2659162519558294  1.2415388242522860
  9.8009211721821163  4.8574224605065313  1.2551863994824957
 10.5829896175758567  1.0970045187533166 10.4437618825881291
  3.6401115379374400  7.3743659479610324 10.4306982589759301
  3.0100169976514271  1.0387574705048894 10.4316754123557232
  9.8902829847588958  7.2029054939455719 10.5717384383028445
  2.9808638726501879  0.9012756652181193 17.9507096429605859
  9.8958904717764966  7.3835391524849294 17.8597714620706043
 10.3978359538071601  0.9645575330435324 17.9603253510126670
  3.4926553038938484  7.1742956667628679 17.9202386108506744
  2.8653197390491298 11.2772669744082314  8.6547110331061727
  9.8552080331557459  4.9191470656607148  8.6971756695904645
 10.4872367419899408 11.2169904635819044  8.7164619242665911
  3.5640882788415094  4.9773939734223314  8.6970451962792197
  6.6006036223222244  9.1251798953430807 11.5146295645300718
  5.1882284622235089 12.5690962766496650 13.1119470201722681
  4.3866578110135448 10.4723002733592789 11.5917263583291383
  7.7968395036388394 11.7088022022506131 13.4006798494823425
  5.6924048572006631  9.9338697879890621 13.9287052174283268
  6.6708848242722389 11.8467222475185530 10.9061447128136617
  8.3649149347303204  9.2012450994983510 13.5739615425804985
  8.8803689757143154 10.4251361989528188 11.0802971221012410
