 O Si Au 
 1.0000000000000000
    18.1541673199999991    0.0003963400000000    0.0000389000000000
    -9.0767404299999992   15.7217942399999995    0.0000413600000000
     0.0000163600000000    0.0000295300000000    7.6305892899999996
 O   Si  Au 
  72  36   8
Cartesian
 15.3333461686255799  4.4253638060747527  0.1833505368245967
  6.0615618541861780 11.4540884619109402  0.1502199617467370
  4.3212380824677927  0.1412241150618841  0.2571157201269841
 11.2267003959510330 11.5239281356037981  4.1393134544474259
  2.0863471064747081  4.5408514826090860  4.1174722951827043
 12.6310324185383838  0.2459936783564218  4.0220791240083127
 12.8001907139466748  0.2721337951274166  0.0881314920521039
  2.0806445493063519  4.6786957039943244  0.2297689913243773
 11.2752555135762993 11.6607094320944942  0.2399828470804781
  4.6905738165651361  0.1958327203467505  4.0628142228711566
  6.0726336419826454 11.5008179059022240  4.1269518312807980
 15.1554753025693199  4.6252496860542704  4.1337664464668915
 -2.2896568718844552  6.9078879335561272  7.1341736617517189
  3.5711051645692167 10.9737686013628757  7.1862959021782116
 -2.7007167405795607 14.3504856768611138  7.2794319788952624
 10.4350876818461966  9.1962315763618463  3.4235389054390946
  4.7095348015439926  5.1947170064788200  3.6917489605343894
 10.6044744878147252  1.7087504857187081  3.4921914875856070
  1.8379892573219130 14.1601600385152082  7.1692029125374237
  1.6125292560109232  7.2047059895049888  7.3139801519299033
 -4.4277209817593919 10.6936116458074668  7.4566496030079676
  6.4317850937368721  2.0782226863075728  3.6401778053746554
  6.9720526467438875  8.9884474128722580  3.5933380766864649
 12.7723327112894189  5.4077455340618688  3.6899036705276069
 10.6359924698454087  9.1093466398313545  0.8228777427989088
  4.5725150622188249  5.2730233169342506  0.9554026342629969
 10.7340730409370018  1.8166349140303499  0.7598413761560777
 -2.3964576499212149  7.2480651140955317  4.4354295153213892
  3.6383250179952591 11.0154280030140743  4.5861407057345733
 -2.5680957624855951 14.1433858885595569  4.5923707974866375
  6.2694454491963674  1.7301702518395929  1.0041539404525082
  6.7038982814413943  9.0401131637872290  0.8763989308902784
 13.0227375853298568  5.4100234290674205  1.0824318185065058
  1.6457899960984725 14.2231249633745502  4.4945439238577123
  1.7352684423452784  7.0807562574633103  4.6154977285993013
 -4.5276288623272745 10.7701400810436709  4.7057186988454989
 -0.3457626607484703  5.2777012885851180  0.3980399846860897
  4.2837806485787029 13.4013956404113586  0.4462207288577025
 -5.0038183631439122 13.3074279293215501  0.2622501543247227
  8.6006888485411572 11.0562246535705455  4.2491505644825081
  3.8813346226310856  2.6364958541707741  4.1332859189361244
 13.1981985894598637  2.8278854231743402  4.2490025326776069
  8.6969093173176688 10.7549641027502538  0.2995700951573141
  3.9704734738650087  2.7254389563678192  0.4255590053436940
 13.2316478899077445  2.8164807030899626  0.2042115327249438
 -0.4524067160756135  5.4554394815181393  4.1196992880202714
  4.1372722500881061 13.3744249373746698  3.7259514397191635
 -5.0420874999948326 13.3672171670408044  4.1127012862328636
 -1.9729553385575234  6.2921018322171269  2.0987122827295028
  4.2881663572706570 11.3452346477011972  2.0889616826401078
 -3.4820843507025625 14.3963266653207658  2.1153766053153311
 10.3482555696677103 10.0449934501366869  5.9987424246033392
  3.9910868881701158  4.5059846466059019  6.0431812009675587
 11.4208319075182221  1.8234319373849548  5.9688593112501378
  2.5779656040747447 14.5454288011509973  1.9999460656863188
  1.3315983767637081  6.2365586355862623  2.2074300938360216
 -5.0352216491274859 11.4205072817887192  2.2325560969248581
  5.5559823095120056  1.6390427247090462  6.0778623531470606
  7.1282819866779477  9.8208137363523882  6.0089427842162690
 13.5259379993186641  4.8173720274892613  6.0716592105357998
  6.6293464607322754  4.1044824309265575  2.0608259236902491
 11.6651248778488306  3.6319460645119324  2.2285246399825001
  8.6790390436705529  7.8310363618688852  1.8583727651537856
  1.3628713903791350 11.8395021375094824  5.7447527393350120
 -2.5793735067601866 11.9777519861345585  6.1892617539533781
 -0.3392809290962363  8.3156636675935900  5.9015623860530964
  8.5607840248293510  2.1042139400931514  2.0222067364482208
 11.3394162572649169  7.0663912591752487  2.3620253050105409
  6.2713159103672487  6.8049981832467514  2.2264646385422209
 -0.5208680471925291 13.6824103505680110  6.0537038932915914
 -2.7844846486487187  9.3276789889165297  5.9911453238855392
  2.0184290639146734  9.4256837936991946  5.7589412140047314
 -1.9152536696589524  5.7123123388842627  0.5978444439495193
  4.5249488601739607 11.8087627747646184  0.5717133274343932
 -3.9599457655524293 14.4769177493140386  0.5844512217354565
 10.0859630501032580 10.4568192067008781  4.4203900932714300
  3.6802769710347305  4.2367391704368167  4.4884322750813865
 11.9325853467595895  1.6613115330675783  4.4392210925500413
  3.0909659707028752 14.5582119778526398  0.4714394557858345
  1.1245557651868117  5.9192348056327555  0.5878381352772074
 -5.3398847145606991 11.7671681922405647  0.6449389716945529
  5.1487167792405772  1.6732216101095818  4.4908156358216216
  7.1722072690676724 10.3605482926538439  4.4945176285675750
 13.6099890988078620  4.3764934748669617  4.5196587762130900
 10.2399141952723394 10.4365628807949911  7.5452311178247227
  3.6236323334961038  4.2791378384566938  0.0323204026827595
 12.0708274958736812  1.7320408390695112  7.4356905899450769
 -2.0030564535612783  5.8723613867312370  3.6806779566442525
  4.5782110440003256 11.8430311437545193  3.5840546615861695
 -3.8953059215200438 14.4167370809482520  3.7069723539726769
  5.0303777732994446  1.5959268748963993  7.6172228741501549
  7.1770117155343165 10.2847779293622210  7.5272228736750595
 13.7071106794299791  4.3526437332188301  0.0030771513291585
  2.9761971365132083 14.5172453303935125  3.5541366139501060
  1.1633952312853324  5.8306691616383883  3.7697781960221746
 -5.3735417313896017 11.8204120588673582  3.7403672379885258
  7.0221500957224166  2.5305066642492697  2.2163336133878291
 11.8343789079508177  5.3863571680248352  2.2753120316334106
  7.1548327379201790  8.1804199624132945  2.1828333506809674
  1.0685717498294898 13.4280365892021045  5.8770870166481410
 -3.5848375897722753 10.7369393218016409  6.0499751038807998
  1.2585470482917895  7.9796030730541609  5.9014203680366313
 10.2396789037803639  8.2422312203917816  2.1092613266759153
 10.1706604278359602  2.7417333485889710  2.1232357783199429
  5.6065183411839818  5.3274946454698133  2.2646849967402281
 -1.9501763448977232  7.9653395744088265  5.9154164083311791
 -2.1069451876473471 13.5066513588971215  6.0614655420733543
  2.6828367922004497 10.8536352678193566  5.8958486393764833
  7.5615890592261810  4.6698499125184822  4.4588581667472029
 10.2273871160218608  4.6652712353547514  0.3177220692522133
  8.3995615609723231  3.1700806933979098  6.6534166774165096
 10.5661781375911623  6.9547923947652261  6.7861853200915041
 10.3431072876193326  4.6249697006110297  5.2876961962286746
  8.0891112200929438  5.8439606697988191  7.0257328780413841
  9.5135597761438007  4.9859108489244166  2.6674515660175748
  8.9574762768427583  6.9094678153950966  4.5773331163374156
