 O Si Au 
 1.0000000000000000
    11.9587094399999998   -0.0000003700000000    0.0000010700000000
    -0.0000003700000000   11.9587162199999995   -0.0000031600000000
     0.0000010700000000   -0.0000031600000000   11.9587174399999991
 O   Si  Au 
  48  24   8
Cartesian
 11.5985435423308729  2.1018473651485245  6.6937620998092280
  5.4547333578219792 11.4401960515683569  3.1304896466459393
  2.1817929239788532  5.5208421404531132  1.1570609742533280
  5.4546252509637148 11.8067302201852495  9.9385883450712598
  9.0316144870690849  5.6959382126873690  0.2892946695640130
  2.0981249595308227 11.5884459797230459  6.7091411216579813
 11.9059770340034383  5.5777048537383811  3.2834785689120607
  5.5207981056438378  2.1766551390292666  0.5239345297644119
 11.1839386310210784  5.5087071503963791 10.0683979749893968
  5.6145019495397603  8.8561372805031393  0.8380811050643876
 11.1284184768191601  8.9172242820402747  6.6582306681448156
  8.9299245947250299 11.2267724771083213  6.6214490318607009
  0.9128365426295970  0.9241401104793430  4.6479635718048806
  3.5159541168789410  0.8607227254033762  1.9070109554177517
  0.7367144403403193  3.3325549194765873  1.8082371464752010
  0.7723455174983765  0.7370907207537898  8.7377448786756027
  3.4511656610465398  0.7652434131129812 11.2871397729980885
  1.0131013729049332  3.8888008597513277 11.2501514927197448
 10.1830770765194014  0.8947865166159003  4.7998942934897482
  7.3775083374083827  1.1420779201558147  2.0326435326484353
 10.0440795826915767  4.0089360751982150  2.1022327038712869
 10.0838517999903274  0.9046774613603793  8.3936449339803190
  7.5568771433887383  0.8618755613885973 11.3307480563140359
 10.4058632166665586  3.5582869143391207 11.5943806339508093
  0.7411583623412448 10.2353512364588717  4.9280525553096712
  0.8006790543194423  7.6524104607118524  1.8370913196075236
  3.5111864923056975 10.1339573371702087  1.9277609453316578
  0.8329753768180058 10.0939762848693650  8.4058840562777313
  1.0768964406904997  6.9754535228281256 11.1689330533094928
  3.8829338507723725 10.0042121425049011 11.1616135298042725
 10.0751727545946359 10.1462841614140657  8.7819034197987982
  7.2988034620735514 10.1637758835363137 11.1175139897321316
 10.4973235263780147  7.6503370876514669 11.4529678467001741
 10.0672640772801270 10.1549706676808409  4.5070183017758740
  7.4680043610270701 10.4461708835556095  1.7383558211976022
 10.0906883211596430  7.1149487916966132  2.1435754456476936
 11.3597966177571426  3.0654005633541419  4.1251621790748008
  2.9811219980517167 11.4602909218591495  4.1682367834859795
  3.1587086386996504  3.1422068812059880  0.4542339941377346
 11.4632693243929289  3.0285077862935448  9.1591468736636283
  3.0017496664607308 11.3024945875122675  9.1347379817475218
  7.8854356124298981 11.6704864900775735  4.1838459239315862
  8.0342686292299170  3.2408439722471676  0.6180990887951795
  7.8441733607344517 11.5297666378099084  9.0317514350061856
 11.6159204584350491  7.9326223152763387  4.1928537142827782
  3.1933094694601305  7.8065149432178460  0.4982756447725821
 11.5845199616646219  7.9367723554234413  9.1488075154882935
  8.2332822096409597  8.2361321090686896  0.6374118328235064
 11.5261022107354112  1.7445919106716705  5.0758925381659399
  3.8382080805872181 11.5095423927936267  2.7989992176699294
  1.8041106967981904  3.9969012087445397  0.7028291930756210
 11.4564897720534216  1.6880473951852508  8.2444234952318922
  3.9475156742899213 11.4429439582067900 10.4238017861103174
  7.0691488098556565 11.6520072015918110  2.7804143067509108
  9.3416559500749994  4.1735046729981695  0.6754143415094401
  7.0246859366551861 11.5934645195701673 10.4135414421012449
  1.6913763475577284 11.5453868906832842  5.1624756836984211
 11.5130451779557426  4.0377338692362814  2.7993812092582400
  3.9551897188748679  1.7171516577425179  0.6143122789810883
  1.6494499862474261 11.4688223165194092  8.2212473872982699
 11.5477795810547104  3.9924250414116882 10.4986716266550033
 11.5558622889477256  7.1232602277815662  2.8441341039739476
  4.0355101600324081  9.2327052788319239  0.6336825853823156
 11.6174250956191791  7.0242309502551930 10.4761260184625744
 11.3875992364993994  9.3167411283328772  8.2307066181474813
  9.4898082369262173  7.2348445475490166  0.6338088090941972
 11.3810807384965234  9.3014143620119363  5.0531553322833727
  1.7519811495705595  7.0471528471533098  0.6652820756078497
  9.2427847795199440 11.4489189529012574  8.2140678188423166
  7.1212112836780799  9.3944218390927361  0.5861008758554587
  9.2713831490321823 11.5100013264334287  5.0367572449118070
  7.0925645519423899  1.8699835898508095  0.6345669990396745
  7.2289528327182202  4.1916511880849718  3.1843580892543732
  3.0381914768288252  3.9973176914886919  4.3277470039331520
  5.3338403859952512  2.2963337948200917  4.1307366384342599
  4.3876759746793388  6.2048627781957562  3.5837740408271013
  5.5994861792341819  4.6203720564888116  5.4305700650476449
  4.6652144853718180  3.9929026857900576  2.2030651426112757
  7.0212918942490470  6.6379824725834222  4.2311897057767025
  6.2722714217567042  6.0880713170844540  1.5815654039258082
