 O Si Au 
 1.0000000000000000
    13.7029250099999995    0.0000001400000000    0.0000007200000000
     0.0000001300000000   12.6471261899999998   -0.0000012000000000
     0.0000009800000000   -0.0000017600000000   18.5380665200000010
 O   Si  Au 
  96  48   8
Cartesian
 13.3994815613197531 12.4550884059649629  3.0461330875745394
  6.6605513937744609  6.3996153452433076  3.1533634169831024
 13.5602376637075981 12.4677834329826158 12.7230232832264178
  6.6883340031176459  6.0788065947131864 12.2389076679898583
 13.4208919652397132 12.5621228515041565 15.8851745408562781
  6.6178610268597922  6.4195437096039214 16.1046880902666523
 13.5743218916533213 12.3057852011965316  6.6345809426270561
  6.6093441612751906  6.2358920128672528  6.7258807594432133
  1.6356544309369079  0.5671374130934461  4.9054634809675379
  8.6354199133005523  6.3505066657783669  4.8553741858008532
 11.5325232328365637  0.1759382400127655  5.0214565349371432
  4.7087057527871341  6.2617736203016428  4.9520844856022430
  1.8197902899085610 11.8206117583805099 14.2881290253663771
  8.4626500872146160  5.7863689493972963 14.2200850468890412
 11.4280450659496911 11.8650518398262097 14.2313709715950765
  4.7674480712936900  5.8186485563440113 14.1662473384025773
  1.6158127703226135  1.8242620841146804  2.7834162621398710
  8.6345353001966387  8.1233256137631997  2.8215334494893316
 11.8164622662536907  1.7768768141010498  2.8584299765032299
  4.6937894815182188  8.1432966432643497  2.8974095468000893
  1.5152722479041050 10.4893127352046012 12.0504940409552681
  8.5973776606230192  4.3353937171303754 11.9786377435328699
 11.8955511960458242 10.3021306832090396 12.1663582614048309
  4.7344865127536782  4.3679201910861911 11.9583042445949292
 11.8984648079410302 10.5411609541775366 16.5275675980315562
  4.9076173077040979  4.3039760355945313 16.3159624668900847
  1.2524418869983509 10.5816846425200968 16.5081434048492817
  8.3516227769584575  4.2052815710928186 16.2587501055593684
 12.1090617336282769  1.7351730204287754  7.1130766164497770
  4.9723624833527884  8.2385496192465268  6.8516957455537533
  1.5896479614689381  1.7193176924872930  7.3684738953891227
  8.4693203108963324  8.1450343918731676  6.9475275461410906
  2.1939059732919972 11.8487808014639313  2.6294941458021239
  9.1937549206135323  5.5442533493227462  2.6052647465670868
 10.7987380360672667 12.0224736083639367  2.6639190294547981
  4.2951089988616342  5.4915111209719241  2.5465268157913497
  2.3394834840617476  0.4577435356808623 11.9578719966712477
  9.2920644639043424  6.8750274656533721 12.0196374392651695
 11.1060333419503188  0.2344686198936328 11.7861691987602004
  4.2688266129227106  6.9863064545382656 11.8914425417882601
 10.8910531941380970  0.4380962690327080 16.4122266930097425
  4.1373320819441677  6.9116688706038714 16.5355377909317554
  2.1738505783443336  0.4821841786260846 16.5145472743317718
  9.1747049001446594  6.7592261610366542 16.4633402723505498
 11.0800819454659525 11.8579912140864536  7.4082989457456296
  4.1071965243490878  5.6926336069883305  7.3900221138111943
  2.4116540431746807 11.8052370883488020  7.0396076815309563
  9.1897107507037283  5.6080061821647780  7.2918312558156630
  1.6890878983151660 10.6198923760659554  0.5012359581854772
  8.4992778099873583  4.1671676692109614  0.4630961540719056
 11.3340730971240085 10.2182810711482830  0.6510804362770108
  4.5856166358525945  4.0779114282277611  0.3915877752510108
  1.8477894243193649  2.1013246501950715 10.0051569773961955
  8.5792349037914910  7.8553412088957471  9.7029974236944039
 11.5639245693079520  1.7526704511658036  9.6640732251475168
  4.7572863039173576  7.9306831575474925  9.4746872083640348
 11.5117048214114135  1.5847708881745239  0.1583329683607440
  4.6529825798025861  8.2631621834445230  0.2418324311960804
  1.7635557850519044  1.8917232500582744  0.0964992622985188
  8.5008313332673353  8.2032342075035682  0.1071800952291104
 11.6193461387283428 10.7158525681047188  9.6089266349849769
  4.7792776695805266  4.1003102872394628  9.3190970245132831
  1.9096103506749122 10.2735837665122389  9.2322495247192329
  8.6979231407548028  3.9960751146171005  9.3354693191307092
 13.4246744671208926  9.1164214546295792 18.1345059996516440
  6.6211141461239107  2.7878496938253541 17.6595589392141186
 13.5574170276448953  3.3035452675916188  8.8293151701849730
  6.6956945030293369  9.4043950871121744  8.5034784215435177
 13.4901500550191642  2.9941741466457001  1.1340199281565506
  6.5956330387893880  9.3657047874757655  1.3923901119941779
 13.6472134037772896  9.1878220375548416 10.5100843603570731
  6.7429640267315039  2.9224884974220853 10.7213228939632099
  2.2791798905544409  8.3932431670523098 17.5256627300198140
  9.1507304063378694  2.0433302359114367 17.5082108454695629
 10.9568531293467988  8.3035408681735223 17.4112510678224766
  4.1523240302443067  1.8509693109998195 17.3140132314505735
  2.1889872464423519  4.0566597003054650  8.1575561463243762
  9.4065427905201329 10.0735364829968166  8.4311589076669300
 11.1326205673243788  3.9421237406574443  8.2479304429296167
  4.2861832605597368 10.4635375323284734  8.1446833713637883
 11.0384116415737967  3.9181722412302409  1.4975039240492252
  4.1786149555570029 10.4076077494877168  1.6544812559768411
  2.2228754726356534  4.0253514656166889  1.7203476945106164
  8.9338075583099350 10.4615824399653707  1.7011562738328658
 11.1452584043146530  8.2104313337622532 10.7732034418817957
  4.3246653857113682  1.9967855861503188 10.9981592173007030
  2.3274217796293373  8.2430460251896882 10.8460394095853836
  9.1927132189015293  1.9919655657290700 10.9710219687251485
  9.7435754144033506 12.3803888891339771  0.2498672621898360
  3.0646025240655641  6.1700020774945843  0.2320481548334964
  3.5074243999317916 12.5241758940447419  0.3141053997439257
 10.2447997101122841  6.1049951572970240  0.2964262380204472
  9.6381335473516963 12.4838437669214315  9.6226734517409600
  3.0021242679702085  5.9286083775267109  9.8231807110010969
  3.3449018971996569  0.0232322876878287  9.4450520043945492
 10.3972655253810053  6.0944967769603888  9.6470149499723110
  1.2551141139165369  0.3496759166517434  3.3141762434024442
  8.2408142366758241  6.6492057494501218  3.3107448020039314
 11.8681521804102630  0.2630037409426891  3.4269334865965408
  5.0824001977321007  6.6214489345465717  3.3983182795431874
  1.3781298646599747 12.0163123917070571 12.7564612795999750
  8.2627454302640189  5.7948578486758695 12.6377954333424274
 12.0317078910588613 11.9090187094113666 12.7463432167083006
  5.1335865814643977  5.8000121571943160 12.5934546232691371
 11.9134327623785996 12.0209677464519853 15.7743107576440398
  5.0823102673873244  5.8628379725100137 15.7656168151987135
  1.2541892606389329 12.0147554943670336 15.7876698411775305
  8.1362014137064236  5.7714160996938206 15.7902779888462170
 12.0804229866879300  0.1774186977193460  6.5693246839083832
  5.0645683335821623  6.6503952576615122  6.4808541154790751
  1.3668334096855410  0.3148040696064184  6.5431370497962158
  8.2251851189421288  6.5834941467934431  6.4347808896520053
  1.2401770056719226  9.6307641747550825 17.8040592696357223
  8.1599042577915029  3.3022169333873821 17.6422067848580433
 11.9150744554149792  9.5946246143792315 17.8089696408793472
  5.0567886395369648  3.2752166831667866 17.5925427734028617
  1.3496028006268725  2.7680238532152757  8.6008332804576799
  8.2650422577156437  8.8718958350680079  8.3722103201190432
 12.1065610306222933  2.6642685972541096  8.4610238361916377
  5.1215341136453230  9.0466960472926594  8.2326865321709608
 11.9486129323734662  2.5754452100386662  1.4051465249707058
  5.0249441734649825  9.0419006338974945  1.5886282855683207
  1.3397459070380600  2.7201417554306420  1.4289295516366378
  8.1873265803020967  9.0119937597570452  1.5275987296362206
 12.0847713783710180  9.5960979199528129 10.7258877256883007
  5.1910328191202648  3.3725063666161463 10.7240717796043761
  1.5109009324645586  9.5803577099275206 10.6692531929940682
  8.3631118316113717  3.3554952528309316 10.7518851652326184
 10.2741950562142641 11.2803135572332227  1.2844640956644382
  3.4850032339510246  4.9392556273833579  1.2405148486327027
  2.9289133927292625 11.4069846946846312  1.2893974187220987
  9.7622775543067206  4.9021079178497509  1.2643794203993919
 10.4092359843415156  0.9725216267590532 10.5438110887556142
  3.6000270572603608  7.2973142138430918 10.4590811563067785
  3.0073141068081566  1.0926651945394463 10.6314482856222288
  9.8066597888305171  7.3087995028993999 10.5545369519375143
  2.8898798708992843  1.0119470096799275 17.8267439084338868
  9.7280033312952021  7.3430268627289577 17.8772435847882569
 10.3003274394420110  0.9592983641338469 17.8229604980430167
  3.5527341383824460  7.4807557685966373 17.9388361586430349
  2.9606796202718599 11.3153147298900052  8.5113965790924802
  9.8219560991004737  4.9326112053392981  8.5973604134794748
 10.3767137486215475 11.3351547079246160  8.7642050291437918
  3.5216847138242922  4.9087198246501149  8.6989913267904804
  6.7962287800270111  8.9308598211580446 11.6998484211258997
  5.3095533101244534 12.5241254230277566 12.5917492339123775
  4.7074469543326956 10.6146561343088752 10.9784950925643603
  7.7715847353922713 11.7752533720996002 13.3235446154865347
  5.4542229341959869 10.1509479902469799 13.6977462726282671
  7.2232539581167945 11.4147399587521203 10.5888233221628258
  7.9105690015510559  9.0889933150659150 14.2194199294517247
  9.1760141423250658 10.1612030002541953 11.8420172323325090
