 O Al Si Cu 
 1.0000000000000000
    13.6750000000000007    0.0000000000000000    0.0000000000000000
    -6.8375000000000004   11.8428974000000000    0.0000000000000000
     0.0000000000000000    0.0000000000000000   14.7669999999999995
 O   Al  Si  Cu 
  73   2  34   2
Cartesian
  0.8928702879999999  1.6172925970341760  9.7106048017299997
  7.4200560256250014  5.7277857069739415  0.0192824532600000
  0.9499268323750005  9.4878971045878142  5.0876988755500001
 -4.1505748043750001 10.1082951011990971 10.3813979917800001
  9.4880070980000006  2.3914410091409599  0.2421917949600000
  2.6147177768750005  6.2900042858179859  4.8171141266799991
  4.5482557016250000  1.8414690520692822 10.1086085298099988
 -2.2606320274999998  5.6513896628549958  0.2459463047100000
  4.3430273870000011  9.4604830472573198  5.4818888782099995
 -2.3029770068750004 11.3633762341234945  6.8986658689100002
 11.2393173743750019  3.4808408364421739 11.5567103145999983
  4.5460987438750013  7.3968722683552253  1.3350364772499999
  2.6255321036249999  2.5886116315189502  6.4843006001699992
  9.5611732710000013  7.0284891151233833 11.3084367306899995
  2.5689588337500000 10.6807657210353995  1.6160685832799999
 -5.9627343863750006 11.4324721978561072  6.4796997936500000
  7.7138768021250002  3.4088514160167942 11.3461266924600004
  0.7317040541249993  7.4824921531141619  1.4913184439800000
  0.0236422972499999  4.1881132359339759 10.7005212789700010
  7.0255251646249999  8.2406656809180863  0.8622997679000000
  6.9627794783750012  0.0273062869641540  5.9560359837299996
  7.4344391855000005  8.4634091453677929 10.6419283333599992
  7.5711754421249999  0.6513952409791220  0.9604146692999999
  0.8822661460000001  4.3925808595449762  5.5475527064300003
  6.9873346502500011  0.9093656406030760 10.8338005421299997
  0.2345610528749997  4.9079187368862502  0.8161409316300000
  7.0838492447500014  8.8717297462147311  5.9469149985099996
 12.1244554071249997  1.0834627459766459 10.8009167958500001
  4.9842976405000003  4.8429157969240526  0.7220724835700000
 -1.5120081010000006  8.9708754040942082  5.9815337196199998
  5.3645764848750002  4.3407910402119585 10.4750677308400011
 -1.8044200790000007  8.1699108825466560  1.0368678584000000
 12.0417060676250003  0.1564668208721380  5.7941291190299999
 -2.0124247604999996  8.6095455252668849 10.8818285852599992
 11.2938093776249993  0.6637750953472380  1.1135212880199998
  4.3328626911249994  4.3740823722351498  5.5637045556900002
  2.7997565266250000  3.9155253849071503  9.9795994400399994
 -4.2296387313750001  7.3598866629170780  0.4667457374500000
  2.6414089837499990 11.4753836338662918  5.4383536948300000
  7.0209834919999992 11.0122496035511404 10.3862445211800001
  6.9784858312500013  3.1614780409863599  0.4501504351800000
  0.1845866542500003  6.9986762789245205  5.5080319319999997
 -1.7253665450000009 11.0966951466038921 10.0895495012600005
 -1.6584330267500000  3.0988402460639159  0.4786516312000000
  5.0034830501250003  6.9410344102702659  5.5187614865299999
 -4.0824296127499995  9.5691120236588194  6.2308271125499992
  9.5398797917500016  1.4871185479667000 11.3038260302799998
  2.6183191565000006  5.6105236136547640  1.5876819791800001
  5.1792240990000007  1.9588924456510479  6.1480276575299992
 -1.7136908983749997  6.0295808668555697 11.3132918249499994
  5.0807709365000004  9.9590446314286751  1.2117758852400000
  0.0176408183750001  2.0860469111684461  6.5021493253999996
  7.1501599351250000  5.9800370530144624 11.3487398607800003
  0.0082664007499993 10.0185028452571689  1.5323438280400001
  1.0594133267500001  4.0048498464017799  8.0916457258700003
  7.8215337182500004  7.8009598623844845 13.1699000712299998
  0.8689278928749999 11.6215712935111259  3.4479895066299999
  7.9538756503750001  9.5673866319366141  8.3263680768899988
  7.7063559623750004  1.5198903320809540 13.2496133709199988
  0.5569020675000003  5.5801686096129277  3.2898894268599999
  6.2721705770000007  0.9195479269296479  8.3273164136299993
 -0.6530431293750005  4.5019404242870822 13.2060843896799991
  6.0011743327499998  8.5052943943182679  3.2691574448799998
 12.7072623690000004  0.3659741894717080  8.3119997858899985
  5.9146329157499995  4.3474148911567516 13.0757577881699998
 -0.8501341352500007  8.3964752209845237  3.4685494530600001
  4.5163711400000004  3.6532773307423163  8.0801838758100004
 -2.4256825083749995  7.6808073915258612 13.2940639606300000
  4.4046816031250007 11.2161391753400448  3.4480688054200002
 -2.5638548451249998  9.2096247812379612  8.3951273636499995
 11.2980750887500019  1.4241088860658961 13.2981325644700004
  4.6698028622500001  5.5446953421727594  3.2487349792200000
  2.8514323003750013  6.9535760386168652  7.8248804615499994
  1.1273815638750000  3.3154483790865781  9.7516179291800000
  5.7645033641250008  8.4609442831319299  4.9537996937299997
  7.9170399866250012  7.2743108337364699 14.7022728425900002
  1.1355201717500014 11.1108924120070114  4.9631278599600002
  7.9908284405000005  9.8052264745600475  9.9182010597699986
  7.9463980920000008  1.9266281296903840  0.0326721351700000
  1.0509000238750001  5.8102096674405139  4.8056225949500000
  5.7228381690000001  0.7238350467926240  9.8473757220399989
 -1.1029662872499999  4.5417729438312158 14.7521091048699997
 13.3270900857500010  0.5969601920828400  9.8159494786600003
  6.3320708376250012  4.5354245586799458 14.6405225647100004
 -0.3306959610000000  8.4679601339806645  5.0035748206299999
  4.3184352242500008  3.3974210067332362  9.6911061595899994
 -2.6714108397500009  7.2109791634553604  0.0583896040200000
  4.1514552008749996 11.0380262618871114  5.0389310057199994
 -2.6298707708750002  9.7634465089674585  9.9249433766299990
 11.0250061931249999  1.8800911090701620  0.0720093557900000
  4.1636204125000003  5.7609556492987846  4.7665703774299999
 -2.6121941239999997  9.7667870350370762  6.8704259011200000
 11.0680114014999997  1.8705638533987841 11.7391075731600001
  4.2093768941250005  5.8632087650270455  1.7137415083699998
  4.1554193098749996  3.1336843003652222  6.5770335207499997
 -2.5732906635000004  7.3312032838432515 11.7146779343799992
  4.1271582129999986 11.0999514696729964  1.8487993090099997
 13.2645569773750012  0.5349056598573459  6.7935313263899992
  6.5417550142500005  4.5117782007282878 11.5820893238099991
 -0.4729420802500002  8.5109425089462771  1.8852709932800000
  5.7406747449999997  0.5936197844421960  6.8297163831900001
 -1.1851948143750004  4.5375792554329024 11.6706312221199990
  5.6741408786250007  8.5227874196388349  1.7088599811799998
 -5.6130404999999994  9.8483822295435957  6.7344463443400002
  8.0013324815000004  1.8412237856641280 11.6875274758499987
  1.0439761662500007  5.9091927223386875  1.7777970626199999
  1.1369779951249999  3.2394709813907223  6.6510615254400003
  8.0021993397499998  7.3202902907470992 11.6324605944999995
  1.0558347159999997 11.2058399996161366  1.8824732374599999
  2.5176844212500002  5.3116763877939439  8.4011450638199996
  3.5572878695000005  7.9721316536712798  6.5496718941200003
