 H  C  O Al Si  P 
 1.0000000000000000
    18.7183090000000014   -1.5145569999999999   -1.4054439999999999
     0.0000000000000000    9.3897410000000008   -0.7027220000000000
     0.0000000000000000    0.0000000000000000    9.4160000000000004
 H   C   O   Al  Si  P  
   9   7  48  12   1  11
Cartesian
  3.1037599999999999  4.6349999999999998  1.9686100000000000
  4.2256600000000004  3.9033099999999998  6.2942499999999999
  5.6019199999999998  6.2378600000000004  6.2758000000000003
  5.8341399999999997  7.5510999999999999  3.9241400000000000
  4.6923399999999997  6.6382500000000002  1.8621200000000000
  3.3103500000000001  2.0623700000000000  4.6344799999999999
  2.7315399999999999  2.4899399999999998  2.9173800000000001
  1.6777800000000000  2.9229500000000002  4.3896600000000001
  5.5481100000000003  5.0700099999999999  2.3692799999999998
  3.4276200000000001  5.1760999999999999  2.9182999999999999
  3.4518399999999998  4.1938700000000004  4.1080600000000000
  4.2661100000000003  4.5561199999999999  5.3605499999999999
  5.1173200000000003  5.8321199999999997  5.3270700000000000
  5.3168199999999999  6.5365399999999996  3.9752100000000001
  4.7929000000000004  5.8613099999999996  2.6902900000000001
  2.7470400000000001  2.8285800000000001  4.0058100000000003
  2.2572399999999999  2.1143700000000001  8.1274599999999992
  0.1220400000000000  0.3303200000000000  3.0476100000000002
  8.4204299999999996  1.6656400000000000  1.6154200000000001
  3.1727500000000002 -0.1724000000000000  0.0297500000000000
  2.3669300000000000  8.2720199999999995  1.4735700000000000
  0.2704800000000000  3.0560700000000001 -0.1132800000000000
  7.0513700000000004  6.4483800000000002 -0.0817800000000000
  9.2449700000000004  8.3357799999999997  4.9420900000000003
  6.9819300000000002  0.3945100000000000  6.4960000000000004
  9.0491799999999998  5.5562100000000001  8.1434300000000004
  0.9948800000000000  6.8913799999999998  6.4565799999999998
  6.2165400000000002  8.7659000000000002  7.9385199999999996
  2.5417600000000000  6.7658500000000004 -0.5419700000000000
  0.1340200000000000  2.5512400000000000  6.8195199999999998
  6.9875400000000001 -0.3913000000000000  1.9920199999999999
  6.8982599999999996  1.8179099999999999  8.5912299999999995
 18.5382399999999983  5.3849499999999999  0.4361700000000000
  2.4893500000000000  9.0394900000000007  5.9870900000000002
  1.3958200000000001  7.6934100000000001  4.0039100000000003
  4.8104199999999997  1.1180200000000000  7.4464699999999997
  7.8388499999999999  4.1637000000000004  0.4645600000000000
  7.9637000000000002  0.8707600000000000  3.9121999999999999
  4.6005900000000004  7.5886600000000000  0.6221200000000000
  1.5760799999999999  4.4249000000000001  7.6240300000000003
 11.6706800000000008  1.4476300000000000  7.3702399999999999
  9.4920500000000008 -0.4510300000000000  2.3829099999999999
 17.7030299999999983  0.9077000000000000  0.8998400000000000
 12.4034999999999993 -0.8744000000000000 -0.6184700000000000
 11.7464899999999997  7.4479300000000004  0.8355900000000001
  9.7080599999999997  2.3578899999999998 -0.8092800000000000
 16.3803899999999985  5.6710900000000004 -0.8477000000000000
 18.5814799999999991  7.6223099999999997  4.2507299999999999
 16.3062700000000014 -0.2760000000000000  5.7751099999999997
 18.3950400000000016  4.7175599999999998  7.4282000000000004
 10.3326899999999995  6.2324500000000000  5.7234699999999998
 15.6413899999999995  8.0161599999999993  7.2114500000000001
 11.8859399999999997  6.0342900000000004 -1.2620700000000000
  9.4832599999999996  1.7803000000000000  6.1440400000000004
 16.3336000000000006 -1.1909000000000001  1.2896700000000001
 16.1436099999999989  1.1103099999999999  7.8875299999999999
  9.2118400000000005  6.1134700000000004  1.1965800000000000
 11.7519200000000001  8.2853300000000001  5.2938499999999999
 10.7508599999999994  6.9902699999999998  3.4089499999999999
 14.1035000000000004  0.2593200000000000  6.7403199999999996
 17.1615099999999998  3.4053399999999998 -0.2188300000000000
 17.3052600000000005  0.1063600000000000  3.1943999999999999
 13.9453300000000002  6.8833399999999996 -0.1436800000000000
 10.8805800000000001  3.7299799999999999  6.8330399999999996
  6.2279600000000004  7.9705100000000000  0.0908800000000000
  8.4400899999999996  0.5026300000000000  5.5491799999999998
  1.1938500000000001  6.0957499999999998  7.9607799999999997
  3.1899700000000002  0.6632100000000000  7.9020000000000001
  0.9076500000000000  8.1445500000000006  2.4172300000000000
  8.2158400000000000  2.4990100000000002  0.1026400000000000
 15.5814900000000005  7.2061700000000002 -0.6485200000000000
 17.7719099999999983 -0.2389100000000000  4.8411000000000000
 10.5397200000000009  5.3937200000000001  7.2313700000000001
 12.4705100000000009 -0.0873300000000000  7.2296399999999998
 10.2825299999999995  7.3750200000000001  1.7741300000000000
 17.4950699999999983  1.7380599999999999 -0.6115000000000000
  1.1798200000000001  8.1907999999999994  5.5228799999999998
  1.0441100000000001  3.0306600000000001  7.9691799999999997
  8.2150900000000000  0.4116400000000000  2.4703599999999999
  3.1682600000000001  7.9565700000000001  0.2117600000000000
  8.2991399999999995  5.5760500000000004  0.0764200000000000
  6.2384399999999998  0.6736400000000000  7.8039600000000000
 10.4236599999999999  2.3230000000000000  7.2395300000000002
 17.5431699999999999 -0.3546800000000000  1.7508699999999999
 12.4886700000000008  7.2207400000000002 -0.4837800000000000
 17.6251600000000010  4.8020100000000001 -0.6549400000000000
 10.5206300000000006  7.4718999999999998  4.8463599999999998
 15.5549099999999996 -0.0710800000000000  7.0921799999999999
