 O Si Au 
 1.0000000000000000
     8.9848655900000001   -0.0000010900000000   -0.0000004000000000
    -0.0000010900000000    8.9848744800000002   -0.0000018100000000
    -0.0000004000000000   -0.0000018100000000    8.9848666399999999
 O   Si  Au 
  24  12   8
Cartesian
  1.3815347901747190  4.4079159881194832  7.6350492287902814
  5.7945455981801270  0.0915901916819776  3.2080186840024947
  7.6908512378466884  1.1767537756082935  4.7199230049237215
  3.1089544490779812  5.6398466279425019  0.1807526785630060
  4.3809309714807636  7.6781201015418477  1.2984458114452868
  0.0944602208604045  3.0706908821636123  5.9203956654779661
  1.2291009952966829  4.3262917560097511  1.3430246834270789
  5.8155322539961469  8.8071114965911317  5.9987351043870705
  4.2721364973268789  7.3530762770796034  7.5935734639041357
  8.9124638579430808  3.0573965029678676  3.2837862499252561
  7.6313822331534880  4.3105179079393006  7.7578269032616518
  3.1343620402037322  8.8570879381099292  3.3317269699315775
  1.3334815534213311  1.2711702567972230  4.5050089426959392
  5.7812061168785762  5.7742079352833562  0.0736461835303280
  7.6013890320441844  4.5036461818578379  1.4610133631795523
  3.1653508021703405  0.0729867747663782  5.9544384446194485
  4.7990975495284642  0.9851645729311836  8.0575528771528440
  0.0508298625660501  5.8125966008262093  3.1743891385051448
  1.2631189411312498  7.6435479724951279  4.7085144422676724
  5.7015636035547610  3.0736747891715908  0.1638099576785481
  4.1988751781788336  1.2665309752474578  1.5975803660570118
  8.8509080171459722  5.7127062792681240  5.8593518290074522
  7.6354903982797051  7.6175298376752787  4.4631522809068587
  3.0047145450388419  2.8140232352766112  0.0155767220364791
  2.2061380748096924  4.2873497505283780  0.0217505915964307
  6.6927792646090385  8.9514924060508267  4.5961387724126990
  8.9683175200866856  2.1263038392460061  4.6116193539840005
  4.3990662981740831  6.6067515123150846  0.0817894213771341
  4.4206290596547992  8.8725843680927881  2.3721166470375303
  8.9591819677717091  4.3809943115539820  6.7768783178108967
  4.4461994291355040  8.8338757073577838  6.9384424154308322
  8.9452592143667502  4.3934786941173369  2.3781629951344567
  6.6633283513132779  4.3568285084833578  0.1055645395873943
  2.2384905507833213  8.9080617570803486  4.6618270699227873
  4.4160849859511924  2.0726864196162853  0.2241630033555203
  8.9712296819277366  6.6989856347062524  4.5476247982296885
  4.5192065717437764  3.7721553029642312  2.8303073236908003
  4.6233637457002468  4.2798256786736175  6.8331124754534498
  4.6374995103746954  2.2717465811388258  5.0075040625800842
  4.3840816967623564  6.2440898713029549  5.1508003959135040
  6.3956461851090198  4.2500343533939500  4.8602477312628594
  2.6166782346368933  4.0410417047884684  4.7856172133756623
  5.7914565980970520  6.1194457551606618  3.0016624869529291
  2.9534504214336335  6.0276646140656034  3.0227036620319012
