 O Si Al Cu 
 1.0000000000000000
    18.2560000000000002    0.0000000000000000    0.0000000000000000
     0.0000000000000000   20.5339999999999989    0.0000000000000000
     0.0000000000000000    0.0000000000000000    7.5419999999999998
 O   Si  Al  Cu 
  97  46   2   2
Cartesian
  5.0343300859771460 20.4311551695914240  0.0269085691600000
 14.1929484051599886 10.2728602222114365  7.4290698750457143
 13.3467391231200025  0.0025260270885714  0.0596516226171428
  4.0077783547142811 10.1912843923400054  7.5346331111114244
  5.1409219009771432  0.1500309136085713  3.7815403878542853
 14.1525315936285683 10.3448243344371331  3.8934276683914262
 13.1212027000971432  0.1634748278800000  3.8591337061085711
  4.0987957897085758 10.3890269669714392  3.8176441567171455
  5.9612409270571440  1.7052279002171420  1.7493695923685717
 15.1133758558514355 11.8127742145371393  1.8738526340800001
 12.0397270713257054  1.5159362704885704  1.8271809488057134
  3.1587046844685700 11.9317383913457125  1.8379929771028565
  6.0324820772114274 18.9420350918942653  5.5916372470971458
 14.9856402240628608  8.4739941537199996  5.6268839575514304
 12.2949184563257159 18.9574499614228529  5.6960808318571354
  3.1262342135257137  8.6085421565828586  5.5652362535657147
  6.4723897624857152  1.9913717563400009  6.7338181138400026
 16.0222057320628686 12.1473358452142826  6.9788568795571395
 11.4423793690685738  1.6408426878457147  6.8257324287828549
  2.2728686271828589 12.1120362974114268  6.9286921212057146
  6.8996994983542885 18.7981968842599834  3.1316604010742859
 15.9766343126457038  8.5396603672971523  3.1682609778542865
 11.3360174364114226 18.7839100367057021  3.2754681943971464
  2.2135018526971399  8.6448308104085729  3.0844221869171404
 11.4040898874914269 18.7778849569600013  0.5967669266142855
  2.0438771937142883  8.4312048027171311  0.4090370236000005
  7.0257611660057142 18.7213532632485737  0.4486364508857141
 16.1703433044571341  8.5725293025200031  0.4670198630914290
 11.0500742106057110  1.8424686151828580  4.2069894294685684
  2.1382464251028557 12.1309489050114330  4.2396470316085688
  7.0272428221771461  2.0246133089085738  4.1165531723371505
 16.1177728654228432 12.0865131439571414  4.2837808275714311
  3.9273882675085732  2.2224169112857139  0.0718651665771429
 13.4581009508800111 12.7499851790314267  7.5531013817885739
 13.8199740636514274  2.5896548111800000  0.2023887065857144
  4.8692827554742912 12.6322004674485751  7.4621646969628541
  4.3206378854857146 18.2205393688714423  3.6862611851057134
 13.4056327658914238  7.8750186362257120  3.5625436406742854
 13.9202078862171419 18.2060084115056959  3.7131951063257134
  4.7299719984171436  7.8905049765428599  3.5429905513685700
 13.9191636558514258 18.0033955686457112  0.0129944433742857
  4.5983421816228498  7.6556586376599940  0.0343259508571428
  4.5254498578914264 17.8735974183628414  7.5018157034942821
 13.6530377873199953  7.7644855491999980  0.3118932916142855
 13.5194067825371391  2.7633920461085699  3.6310905666742843
  4.6582949822628548 12.9452527515942855  3.7832976049742841
  4.4600991569200028  2.6650396818285698  3.7158708228799986
 13.6137585332800057 12.9076903845314312  3.7837854218028539
  6.0211232383714268  6.1363918059799953  2.0703696804200002
 15.1126447974285654 16.6361574581828471  1.9471002819799990
 12.6350048908342991  5.9090572472857099  1.9093203693828564
  3.1742389635085724 16.6558208369571368  1.9069012095085718
  5.9685272553028605 14.2548141309371346  5.6912597995657137
 15.1091209369714221  3.5137762933285730  5.6181618673342806
 12.3058427766742877 14.2249733489714352  5.6851453099257165
  2.9872944352685691  3.7344841353485703  5.6399116268857155
  4.5718139771257098  4.7621472471228579 -0.0179859654085714
 13.7402759782114163 15.3691152019771415  0.0725547684828571
 13.8564850459371272  5.1987427063485665  7.2197407125800019
  4.4701346984400061 15.2289034495285733  0.1233454358828571
  4.6567638986914321 15.6048825466085823  3.8547433939114288
 13.7966101659657152  5.3357560167371423  4.2380662228285706
 13.6308158243085717 15.5708905461542759  3.8594299839942838
  4.3511547661371450  5.2907846668257159  3.9888300646314314
  7.0900005673028552  6.1897449873885702  7.2526790427485697
 16.0821999647885825 16.5437258012114228  7.0752240373714308
 11.4909688359028710  6.4244263655657168  7.1220996865199995
  2.2534024731542872 16.5873008966171440  7.0168312667342896
  6.8934742590685731 14.2748523150314366  3.2530961291228557
 15.8355777916742717  4.0025493643571428  3.1341038944028599
 11.3930745042114285 14.2422872681428512  3.2383762210971430
  2.2020902326057130  3.9345211573428580  3.1547169663571384
 11.3529144480914361 14.2582009978514233  0.5655029319114278
  2.0122228393085728  4.0265322322857111  0.4910954406885715
  6.9069546052285746 14.2001311130000065  0.5865632582114290
 16.0863354458457088  3.9723038926457144  0.4825203566828574
 11.3548948933142846  6.3113371778028515  4.1884827731228489
  2.2569298917942846 16.6885977918314303  4.3504043003314283
  6.6619923204628586  6.4708881549314308  4.6171007314800008
 15.9940279592685766 16.7135815987942848  4.4085688646228549
 18.2203686546457071  7.9064177802400009  1.9641522461428556
  9.1615065482971385 18.2890527011257049  1.8997955569342868
  0.0106018290914286 12.5963480158485748  5.7100859894199978
  8.9997133209428704  1.9673629575514262  5.8903162264028586
  2.0470131988285711  6.2545310591514287  1.9375935514857141
 11.1480419831371407 16.5127866742285541  1.9230731164514288
 16.1006563014857100  6.2753797826971445  1.8083511392742868
  7.1532707583257125 16.5036610686886007  1.8591785855285716
  2.0133599508114304 14.3767167567457097  5.6005130831371455
 10.7662484150114306  3.9692415247685697  5.7757253264685655
 16.2692917560285828 14.3735831954828672  5.5773813288342859
  7.4933544480114271  4.1447803666628573  5.5920455845342900
 18.1711475011143015  4.6012463708371394  2.0109334355028579
  9.1410806055542970 14.7114669290428601  1.9261383352485715
  0.0159001626914286 16.1665198558057313  5.6512048197857148
  9.1051233155599913  6.2684150241485712  5.4298620339657138
  9.3932046857200042  7.3917823442199966  1.9112627770485704
  5.3561485623942824  1.4713200367800010  0.2550908170828570
 14.7025189576342790 11.7580664780028510  0.3042708262142860
 12.6628967049999908  1.4600546041342857  0.3297749371142858
  3.5724884203885710 11.7237856151371300  0.2820820796200002
  5.6012107418114327 19.1470316858228742  4.0433069428228592
 14.6457264849657278  8.8032286934828559  4.0692800685885695
 12.6701698597028667 19.1542023983200025  4.1325211660571419
  3.5224980553257166  8.8793912370685746  4.0204275478028633
 12.7378596742971464 19.0654852570428268  7.2512968454228615
  3.4591578594685704  8.7015130274571479  7.1625021437457130
  5.6493454176342919 18.9876135514257243  7.1646949003685672
 14.7535006770285744  8.7629226270485656  7.2128551125171461
 12.4383611609428630  1.5732944105914279  3.3974023712028543
  3.5162140045314261 11.8573775849542802  3.4153437177771404
  5.6444819991200070  1.6292974493714274  3.3404770250857143
 14.7455521081485745 11.7976853254085672  3.4533672077971436
 14.6979531955428495 16.6372326139371154  0.3840634426000004
 12.8973695996457050  6.3266234430628572  0.3501386211942856
  3.6231265669771426 16.5904553363228473  0.3551292332314288
  5.5248290426057141 14.2671898215942861  4.1356479254628562
 14.5608979479485665  3.8949618663914309  4.1371333946514310
 12.7549540960171353 14.2374189521342895  4.1315840353599986
  3.5035947702571426  3.9009468780228609  4.1222197838971475
 12.7287376791200089 14.1622254600914346  7.2446865391057154
  3.3959296273428570  3.7172599812028584  7.2155153932228595
  5.5431207148000068 14.0910672645085704  7.2440946362942915
 14.7046142203199999  3.8197075279628572  7.1648851354028560
 12.8255398544914261  6.3661349046114273  3.4450104765199994
  3.6139617872057128 16.7787980178171807  3.4578075261399994
  5.4076578745142880  6.4289212321114366  3.5739631883457155
 14.6507599163657218 16.7738087667200020  3.4915011804857161
  1.5721755033199998  7.8125125008228569  1.8387782620142854
 10.7647013992971381 18.0913489594914161  1.9215057619714286
 16.6134947630685694  7.8231984585999967  1.8494059931485716
  7.5629920561142825 18.0746133902685635  1.8390481209114298
  1.6091896251142848 12.8052786052828633  5.6220899009199954
 10.5720998241142770  2.3875306676171437  5.6742640044600048
 16.6670366049142729 12.8010872893114342  5.6387305660742904
  7.4998897866571355  2.5133183411857161  5.5980880466571401
  1.5310547791657143  4.7046214068285721  1.8877317582114281
 10.7481474643257151 14.9371013477314492  1.9147096185228569
 16.5596311926514304  4.7097501653599974  1.8583691752371432
  7.5329160655942848 14.9242696007914208  1.9041265547085713
  1.6237874119714291 15.9532510634828455  5.6565222598257145
 16.6647535673485763 15.9479705882057097  5.6775674763885693
  7.5786921670057081  5.7428573694800011  5.7517503181257137
  5.3958228870971494  6.1927332826342871  0.3755789713200000
 10.7861742981371407  5.6673880045314258  5.7615588892342853
  7.8484272430628623  6.5814195941171389  1.5870008716971427
  9.5155934819314361  6.7097457817628534  3.5513806106142844
