 Y  H  C  O 
 1.0000000000000000
     9.5398800000000001    0.0000000000000000    5.5078519999999997
    -0.0000000000000000   12.0477240000000005    0.0000000000000000
     0.0000000000000000    0.0000000000000000   36.7190160000000034
 Y   H   C   O  
  24  32  22   1
Selective dynamics
Cartesian
  2.1199712133599999  4.6747940096520004 19.8282795668160006   F   F   F
  2.1199712133599999 10.6986560096519998 19.8282795668160006   F   F   F
  5.2999375732800003  4.6747940096520004 21.6642339053840018   F   F   F
  5.2999375732800003 10.6986560096519998 21.6642339053840018   F   F   F
  8.4798943933200004  4.6747940096520004 23.5001827361000011   F   F   F
  8.4798943933200004 10.6986560096519998 23.5001827361000011   F   F   F
  1.0599856066800000  1.3490679903480001 17.9923049438999989   F   F   F
  1.0599856066800000  7.3729299903480001 17.9923049438999989   F   F   F
  4.2399424267199999  1.3490679903480001 19.8282537746160017   F   F   F
  4.2399424267199999  7.3729299903480001 19.8282537746160017   F   F   F
  7.4199087866399998  1.3490679903480001 21.6642081131839994   F   F   F
  7.4199087866399998  7.3729299903480001 21.6642081131839994   F   F   F
  2.1199712133599999  4.6747940096520004 23.5001811668160023   T   T   T
  2.1199712133599999 10.6986560096519998 23.5001811668160023   T   T   T
  5.2999375732800003  4.6747940096520004 25.3361355053840001   T   T   T
  5.2999375732800003 10.6986560096519998 25.3361355053840001   T   T   T
  8.4798943933200004  4.6747940096520004 27.1720843361000028   T   T   T
  8.4798943933200004 10.6986560096519998 27.1720843361000028   T   T   T
  1.0599856066800000  1.3490679903480001 21.6642065439000007   F   F   F
  1.0599856066800000  7.3729299903480001 21.6642065439000007   F   F   F
  4.2399424267199999  1.3490679903480001 23.5001553746160035   F   F   F
  4.2399424267199999  7.3729299903480001 23.5001553746160035   F   F   F
  7.4199087866399998  1.3490679903480001 25.3361097131840012   F   F   F
  7.4199087866399998  7.3729299903480001 25.3361097131840012   F   F   F
  2.1199712133599999  2.3449208084640003 19.8282795668160006   F   F   F
  2.1199712133599999  8.3687828084640010 19.8282795668160006   F   F   F
  5.2999375732800003  2.3449208084640003 21.6642339053840018   F   F   F
  5.2999375732800003  8.3687828084640010 21.6642339053840018   F   F   F
  8.4798943933200004  2.3449208084640003 23.5001827361000011   F   F   F
  8.4798943933200004  8.3687828084640010 23.5001827361000011   F   F   F
  1.0599856066800000  3.6789411915360004 17.9923049438999989   F   F   F
  1.0599856066800000  9.7028031915360007 17.9923049438999989   F   F   F
  4.2399424267199999  3.6789411915360004 19.8282537746160017   F   F   F
  4.2399424267199999  9.7028031915360007 19.8282537746160017   F   F   F
  7.4199087866399998  3.6789411915360004 21.6642081131839994   F   F   F
  7.4199087866399998  9.7028031915360007 21.6642081131839994   F   F   F
  2.1199712133599999  2.3449208084640003 23.5001811668160023   T   T   T
  2.1199712133599999  8.3687828084640010 23.5001811668160023   T   T   T
  5.2999375732800003  2.3449208084640003 25.3361355053840001   T   T   T
  5.2999375732800003  8.3687828084640010 25.3361355053840001   T   T   T
  8.4798943933200004  2.3449208084640003 27.1720843361000028   T   T   T
  8.4798943933200004  8.3687828084640010 27.1720843361000028   T   T   T
  1.0599856066800000  3.6789411915360004 21.6642065439000007   F   F   F
  1.0599856066800000  9.7028031915360007 21.6642065439000007   F   F   F
  4.2399424267199999  3.6789411915360004 23.5001553746160035   F   F   F
  4.2399424267199999  9.7028031915360007 23.5001553746160035   F   F   F
  7.4199087866399998  3.6789411915360004 25.3361097131840012   F   F   F
  7.4199087866399998  9.7028031915360007 25.3361097131840012   F   F   F
  4.6550321454000008  1.4527627508159999 30.8708974633000039   T   T   T
  5.0389169165999999 -0.0116381013840000 29.9561900396280052   T   T   T
  2.8504589047200000  0.1961610421680000 28.6240921610880044   T   T   T
  2.4420852615600004  1.6435625558039999 29.5766183363160025   T   T   T
  2.4880674831600000  1.7058613366080000 27.8013640678360048   T   T   T
  6.7764725002800006  2.5020592725960000 29.9956408775640000   T   T   T
  7.1549195398800007  0.9890579017800001 29.1475233896359995   T   T   T
  7.0728670319999996  1.0164664738800000 30.9138494308879999   T   T   T
  0.0000000000000000  0.0000000000000000 16.1563670400000028   F   F   F
  0.0000000000000000  6.0238620000000003 16.1563670400000028   F   F   F
  3.1799568200400001  0.0000000000000000 17.9923158707160020   F   F   F
  3.1799568200400001  6.0238620000000003 17.9923158707160020   F   F   F
  6.3599231799600000  0.0000000000000000 19.8282702092840033   F   F   F
  6.3599231799600000  6.0238620000000003 19.8282702092840033   F   F   F
  0.0000000000000000  0.0000000000000000 19.8282686400000046   F   F   F
  0.0000000000000000  6.0238620000000003 19.8282686400000046   F   F   F
  3.1799568200400001  0.0000000000000000 21.6642174707160038   F   F   F
  3.1799568200400001  6.0238620000000003 21.6642174707160038   F   F   F
  6.3599231799600000  0.0000000000000000 23.5001718092840051   F   F   F
  6.3599231799600000  6.0238620000000003 23.5001718092840051   F   F   F
  0.0000000000000000  0.0000000000000000 23.5001702400000028   T   T   T
  0.0000000000000000  6.0238620000000003 23.5001702400000028   T   T   T
  3.1799568200400001  0.0000000000000000 25.3361190707160020   T   T   T
  3.1799568200400001  6.0238620000000003 25.3361190707160020   T   T   T
  6.3599231799600000  0.0000000000000000 27.1720734092840033   T   T   T
  6.3599231799600000  6.0238620000000003 27.1720734092840033   T   T   T
  4.4436474843600005  1.6677664333200000 28.7279867141080061   T   T   T
  5.1369773431199999  1.0809579404520000 29.9593423630400046   T   T   T
  2.9707949510400002  1.2831669400680001 28.6890517672480030   T   T   T
  6.6215257693199998  1.4185592623800001 30.0012111587879993   T   T   T
  5.0799288607199999  1.1724604042320002 27.5531452469520026   T   T   T
