Li Fe  C  O 
 1.0000000000000000
     8.8143919999999998    0.0000000000000000    0.0136180000000000
     2.9819190000000000    9.6168669999999992    6.8085880000000003
     0.0000000000000000    0.0000000000000000   35.5890529999999998
 Li  Fe  C   O  
  32  16   1  49
Cartesian
  3.6737492817730004  4.8057696278409994 20.0250864409520020
  5.1647087817730002  9.6142031278409998 20.8873255632679999
  9.5719135961650004  9.6142031278409998 23.4361894545700018
  8.0809452817729994  4.8057696278409994 17.4898405632680003
  0.7791065241149999  2.4041878993989996 18.2224745869119999
  2.2700660241150001  7.2126213993989996 19.0846781201749991
  6.6772620241150005  7.2126213993989996 21.6335775869120006
  5.1863025241150007  2.4041878993989996 15.6871931201749977
  2.2617064748679998  4.8075487482360000 17.3818543690669998
  3.7526659748680000  9.6159822482359996 23.3282032467510021
  8.1598619748680008  9.6159822482359996 20.7929573690670004
  6.6689024748680001  4.8075487482360000 19.9307182467509989
  3.7429576192370000  0.0011828746410000 16.4705782346129972
  5.2339171192369998  4.8096163746409992 17.3327817678759999
  9.6411219336289999  4.8096163746409992 19.8816812482309970
  8.1501624336289993  0.0011828746410000 13.9352967814939994
  3.6737492817730004  4.8057696278409994 25.1092673744260040
  5.1647087817730002  9.6142031278409998 25.9714709076889996
  9.5719135961650004  9.6142031278409998 28.5203703880440038
  8.0809452817729994  4.8057696278409994 22.5739859076889964
  0.7791065241149999  2.4041878993989996 23.3066199313329960
  2.2700660241150001  7.2126213993989996 24.1688590536490011
  6.6772620241150005  7.2126213993989996 26.7177229313329967
  5.1863025241150007  2.4041878993989996 20.7713740536490015
  2.2617064748679998  4.8075487482360000 22.4659997134879994
  3.7526659748680000  9.6159822482359996 28.4123485911719982
  8.1598619748680008  9.6159822482359996 25.8771027134880001
  6.6689024748680001  4.8075487482360000 25.0148635911719985
  3.7429576192370000  0.0011828746410000 21.5547235790339968
  5.2339171192369998  4.8096163746409992 22.4169271122969995
  9.6411219336289999  4.8096163746409992 24.9658265926519967
  8.1501624336289993  0.0011828746410000 19.0194421259149991
  2.2450725366270001  2.4023414609349998 15.6873571840759993
  3.7360320366269999  7.2107749609349998 21.6337060617600017
  8.1432280366270007  7.2107749609349998 19.0984601840760000
  6.6522685366270000  2.4023414609349998 18.2362210617599985
  3.7143881760030002  2.4031108102949998 18.2311231729810004
  5.2053388616110006  7.2115443102949994 19.0933622816789992
  9.6125348616109996  7.2115443102949994 21.6422261593630019
  8.1215753616110007  2.4031108102949998 15.6958772816789995
  2.2450725366270001  2.4023414609349998 20.7715025284969990
  3.7360320366269999  7.2107749609349998 26.7178514061810013
  8.1432280366270007  7.2107749609349998 24.1826055284969996
  6.6522685366270000  2.4023414609349998 23.3203664061809981
  3.7143881760030002  2.4031108102949998 23.3153041064550024
  5.2053388616110006  7.2115443102949994 24.1775076260999988
  9.6125348616109996  7.2115443102949994 26.7264070928370039
  8.1215753616110007  2.4031108102949998 20.7800226260999992
  8.6565787635209990  1.9673705665249999 23.1463663641599986
  3.5708463311259999  1.2888332816060000 14.8347922668970007
  5.0618088130450003  6.0972763984729994 20.7811835422219993
  9.4690048130450002  6.0972763984729994 18.2459020754849988
  7.9780423311259998  1.2888332816060000 17.3836917336339987
  2.3228184920789996  3.5173979558509996 19.1968836796359987
  3.8137779920790003  8.3258314558509987 20.0591228019520003
  8.2209739920789993  8.3258314558509987 22.6079866796359994
  6.7300144920790004  3.5173979558509996 16.6616378019520006
  2.3098942239959999  1.3029316086279998 17.2458983914880015
  3.8008507420770004  6.1113554917609996 18.1080951161629997
  8.2080497239960000  6.1113651086280001 20.6570013914880022
  6.7170872420770005  1.3029219917609998 14.7106101161630001
  5.2684163572910006  3.5035111999029995 18.9573980432130007
  6.7593728753719997  8.3119350830359995 19.8195947678879989
 11.1665688753719987  8.3119350830359995 22.3684942346250004
  9.6756123572909996  3.5035111999029995 16.4221165764760002
  3.5745512543749998  3.4730834327149998 16.5234829032979995
  5.0655107543749995  8.2815169327150002 22.4698673700350007
  9.4727067543750003  8.2815169327150002 19.9345859032980002
  7.9817472543749997  3.4730834327149998 19.0723823700349975
  0.8564685850879999  1.3319745469679998 14.9513395340319999
  2.3474280850879996  6.1404080469679991 20.8977240007689993
  6.7546240850879995  6.1404080469679991 18.3624425340319988
  5.2636645850879997  1.3319745469679998 17.5002390007689996
  3.5708463311259999  1.2888332816060000 19.9189376113179968
  5.0618088130450003  6.0972763984729994 25.8653288866430024
  9.4690048130450002  6.0972763984729994 23.3300474199059984
  7.9780423311259998  1.2888332816060000 22.4678370780550019
  2.3228184920789996  3.5173979558509996 24.2810646131100007
  3.8137779920790003  8.3258314558509987 25.1432681463729999
  8.2209739920789993  8.3258314558509987 27.6921676131100014
  6.7300144920790004  3.5173979558509996 21.7457831463730002
  2.3098942239959999  1.3029316086279998 22.3300437359090012
  3.8008507420770004  6.1113554917609996 23.1922404605839994
  8.2080497239960000  6.1113651086280001 25.7411467359089983
  6.7170872420770005  1.3029219917609998 19.7947554605839997
  5.2684163572910006  3.5035111999029995 24.0415433876340003
  6.7593728753719997  8.3119350830359995 24.9037401123089985
 11.1665688753719987  8.3119350830359995 27.4526395790460001
  9.6756123572909996  3.5035111999029995 21.5062619208969998
  3.5745512543749998  3.4730834327149998 21.6076282477189991
  5.0655107543749995  8.2815169327150002 27.5540127144560039
  9.4727067543750003  8.2815169327150002 25.0187312477189963
  7.9817472543749997  3.4730834327149998 24.1565277144560007
  0.8564685850879999  1.3319745469679998 20.0354848784529977
  2.3474280850879996  6.1404080469679991 25.9818693451899989
  6.7546240850879995  6.1404080469679991 23.4465878784529984
  5.2636645850879997  1.3319745469679998 22.5843843451899993
  9.3351151959159999  2.6459078514439995 23.8248956502649989
