 H Ir Au  O 
 1.0000000000000000
     9.3595539999999993    0.0000000000000000    0.0729720000000000
    -0.0597380000000000   10.8188270000000006    1.9273880000000001
     0.0000000000000000    0.0000000000000000   34.4080560000000020
 H   Ir  Au  O  
   1  16  16  48
Cartesian
  5.6431940898399997  1.9152785814640001 22.4288445950800011
  2.3398884999999998  0.0000000000000000 13.6380870306480002
  7.0196654999999994  0.0000000000000000 13.6745730306480002
  2.3249540000000000  2.7047067500000002 15.5536145000000001
  7.0047309999999996  2.7047067500000002 15.5901005000000001
  2.3100194999999997  5.4094135000000003 17.4691419693520018
  6.9897964999999997  5.4094135000000003 17.5056279693520018
  2.2950849999999998  8.1141202500000009 13.6499819693520017
  6.9748619999999999  8.1141202500000009 13.6864679693520017
  2.3398884999999998  0.0000000000000000 19.3727745000000020
  7.0196654999999994  0.0000000000000000 19.4092605000000020
  2.3249540000000000  2.7047067500000002 21.2883019693520019
  7.0047309999999996  2.7047067500000002 21.3247879693520019
  2.3100194999999997  5.4094135000000003 23.2037950306480028
  6.9897964999999997  5.4094135000000003 23.2402810306480028
  2.2950849999999998  8.1141202500000009 19.3846350306479991
  6.9748619999999999  8.1141202500000009 19.4211210306479991
  0.0000000000000000  0.0000000000000000 16.4872049693519998
  4.6797769999999996  0.0000000000000000 16.5236909693519998
  9.3446194999999985  2.7047067500000002 12.7410169693520015
  4.6648424999999998  2.7047067500000002 12.7045309693520014
  9.3296849999999996  5.4094135000000003 14.6565100306480005
  4.6499079999999999  5.4094135000000003 14.6200240306480005
 -0.0448035000000000  8.1141202500000009 16.4990655000000004
  4.6349734999999992  8.1141202500000009 16.5355515000000004
  0.0000000000000000  0.0000000000000000 22.2218580306480007
  4.6797769999999996  0.0000000000000000 22.2583440306480007
  9.3446194999999985  2.7047067500000002 18.4756700306480006
  4.6648424999999998  2.7047067500000002 18.4391840306480006
  9.3296849999999996  5.4094135000000003 20.3911975000000005
  4.6499079999999999  5.4094135000000003 20.3547115000000005
 -0.0448035000000000  8.1141202500000009 22.2337529693520004
  4.6349734999999992  8.1141202500000009 22.2702389693520004
  0.9186042302859999 10.0293988314640004 16.6695315834040017
  5.5983812302859990 10.0293988314640004 16.7060175834040017
  0.9634077302859999  1.9152785814640001 16.6576710527560010
  5.6431847302859994  1.9152785814640001 16.6941570527560010
  0.9335387302860000  7.3246920814639997 14.7540385221080008
  5.6133157302859997  7.3246920814639997 14.7905245221080008
  3.6864909101599994  3.4941349185360000 14.4495578742720010
  8.3662679101599977  3.4941349185360000 14.4860438742720010
  3.6715564101599996  6.1988416685360006 16.3650853436239991
  8.3513334101599987  6.1988416685360006 16.4015713436239992
  3.6566219101599997  8.9035484185360012 18.2805784049200000
  8.3364082697139992  8.9035484185360012 18.3170644778920000
  1.4910162761240000  1.8371017375620002 13.9048436706480008
  6.1707932761239990  1.8371017375620002 13.9413296706480008
  1.4760817761239999  4.5418084875620002 15.8203367319439998
  6.1558587761239991  4.5418084875620002 15.8568227319439998
  1.4611472761239999  7.2465152375620008 17.7358642012959997
  6.1409242761239993  7.2465152375620008 17.7723502012959997
  3.1290227238760000  8.9817252624380011 15.2987527987040011
  7.8087997238759996  8.9817252624380011 15.3352387987040011
  3.1738262238760000  0.8676050124380000 15.2868922680560022
  7.8536032238760001  0.8676050124380000 15.3233782680560022
  3.1588917238760001  3.5723117624379999 17.2023853293520013
  7.8386687238759993  3.5723117624379999 17.2388713293520013
  0.9186042302859999 10.0293988314640004 22.4042190527559981
  5.5983812302859990 10.0293988314640004 22.4407050527559981
  0.9484732302859999  4.6199853314640009 18.5731985221080009
  5.6282595898399999  4.6199853314640009 18.6096845950800009
  0.9335387302860000  7.3246920814639997 20.4886915834039982
  5.6133157302859997  7.3246920814639997 20.5251775834039982
  3.7014254101599997  0.7894281685360001 18.2687178742720029
  8.3812024101599985  0.7894281685360001 18.3052038742720029
  3.6864909101599994  3.4941349185360000 20.1842453436240028
  8.3662679101599977  3.4941349185360000 20.2207313436240028
  3.6715564101599996  6.1988416685360006 22.0997384049200036
  8.3513334101599987  6.1988416685360006 22.1362244049200036
  1.4462127761240000  9.9512219875620005 19.6513916706479996
  6.1259897761239994  9.9512219875620005 19.6878776706479997
  1.4910162761240000  1.8371017375620002 19.6394967319440035
  6.1707932761239990  1.8371017375620002 19.6759827319440035
  1.4760817761239999  4.5418084875620002 21.5550242012960034
  6.1558587761239991  4.5418084875620002 21.5915102012960034
  3.1290227238760000  8.9817252624380011 21.0334402680560011
  7.8087997238759996  8.9817252624380011 21.0699262680560011
  3.1738262238760000  0.8676050124380000 21.0215453293520014
  7.8536032238760001  0.8676050124380000 21.0580313293520014
  3.1439572238760003  6.2770185124380005 19.1179127987039976
  7.8237342238759995  6.2770185124380005 19.1543987987039976
