Ti Cd Hg  H  C  O 
 1.0000000000000000
     8.2945100000000007    0.0000000000000000    0.0000000000000000
     0.0000000000000000   15.7981230000000004    3.1596250000000001
     0.0000000000000000    0.0000000000000000   37.9154959999999974
 Ti  Cd  Hg  H   C   O  
  20  18  38   8   3   1
Selective dynamics
Cartesian
  0.0000000000000000  6.3192492000000007 15.4821609999999996   F   F   F
  4.1472550000000004  6.3192492000000007 15.4821609999999996   F   F   F
  0.0000000000000000  3.1596246000000003 18.6417855999999986   F   F   F
  4.1472550000000004  3.1596246000000003 18.6417855999999986   F   F   F
  0.0000000000000000  0.0000000000000000 15.4821482281679987   F   F   F
  4.1472550000000004  0.0000000000000000 15.4821482281679987   F   F   F
  0.0000000000000000 12.6384984000000014 15.4821737718319987   F   F   F
  4.1472550000000004 12.6384984000000014 15.4821737718319987   F   F   F
  0.0000000000000000  9.4788738000000006 18.6417983718319995   F   F   F
  4.1472550000000004  9.4788738000000006 18.6417983718319995   F   F   F
  0.0000000000000000  6.3192492000000007 21.8014229718320003   F   F   F
  4.1472550000000004  6.3192492000000007 21.8014229718320003   F   F   F
  0.0000000000000000  3.1596246000000003 24.9610475718319975   T   T   T
  4.1472550000000004  3.1596246000000003 24.9610475718319975   T   T   T
  0.0000000000000000  0.0000000000000000 21.8014101999999959   T   T   T
  4.1472550000000004  0.0000000000000000 21.8014101999999959   T   T   T
  0.0000000000000000 12.6384984000000014 21.8013978281679996   F   F   F
  4.1472550000000004 12.6384984000000014 21.8013978281679996   F   F   F
  0.0000000000000000  9.4788738000000006 24.9610224281680004   T   T   T
  4.1472550000000004  9.4788738000000006 24.9610224281680004   T   T   T
  0.0000000000000000  6.3192492000000007 18.6417730281680001   F   F   F
  4.1472550000000004  6.3192492000000007 18.6417730281680001   F   F   F
  0.0000000000000000  3.1596246000000003 15.4821735718319999   F   F   F
  4.1472550000000004  3.1596246000000003 15.4821735718319999   F   F   F
  0.0000000000000000  0.0000000000000000 18.6417981718320007   F   F   F
  4.1472550000000004  0.0000000000000000 18.6417981718320007   F   F   F
  0.0000000000000000 12.6384984000000014 18.6417857999999974   F   F   F
  4.1472550000000004 12.6384984000000014 18.6417857999999974   F   F   F
  0.0000000000000000  9.4788738000000006 15.4821484281679993   F   F   F
  4.1472550000000004  9.4788738000000006 15.4821484281679993   F   F   F
  0.0000000000000000  6.3192492000000007 24.9610349999999990   T   T   T
  4.1472550000000004  6.3192492000000007 24.9610349999999990   T   T   T
  0.0000000000000000  3.1596246000000003 21.8013976281679973   F   F   F
  4.1472550000000004  3.1596246000000003 21.8013976281679973   F   F   F
  0.0000000000000000 12.6384984000000014 24.9610477718319999   T   T   T
  4.1472550000000004 12.6384984000000014 24.9610477718319999   T   T   T
  0.0000000000000000  9.4788738000000006 21.8014103999999982   F   F   F
  4.1472550000000004  9.4788738000000006 21.8014103999999982   F   F   F
  2.0736275000000002  4.7394369000000003 17.0619732999999982   F   F   F
  6.2208825000000001  4.7394369000000003 17.0619732999999982   F   F   F
  2.0736275000000002  1.5798123000000002 13.9023359281679983   F   F   F
  6.2208825000000001  1.5798123000000002 13.9023359281679983   F   F   F
  2.0736275000000002 14.2183107000000000 20.2215855281679993   F   F   F
  6.2208825000000001 14.2183107000000000 20.2215855281679993   F   F   F
  2.0736275000000002 11.0586860999999992 17.0619860718319991   F   F   F
  6.2208825000000001 11.0586860999999992 17.0619860718319991   F   F   F
  2.0736275000000002  7.8990615000000002 20.2216106718319999   F   F   F
  6.2208825000000001  7.8990615000000002 20.2216106718319999   F   F   F
  2.0736275000000002  7.8990615000000002 17.0619607281679997   F   F   F
  6.2208825000000001  7.8990615000000002 17.0619607281679997   F   F   F
  2.0736275000000002  4.7394369000000003 13.9023612718319995   F   F   F
  6.2208825000000001  4.7394369000000003 13.9023612718319995   F   F   F
  2.0736275000000002  1.5798123000000002 17.0619858718320003   F   F   F
  6.2208825000000001  1.5798123000000002 17.0619858718320003   F   F   F
  2.0736275000000002 14.2183107000000000 17.0619735000000006   F   F   F
  6.2208825000000001 14.2183107000000000 17.0619735000000006   F   F   F
  2.0736275000000002 11.0586860999999992 20.2215981000000014   F   F   F
  6.2208825000000001 11.0586860999999992 20.2215981000000014   F   F   F
  2.0736275000000002  4.7394369000000003 23.3812352718320007   T   T   T
  6.2208825000000001  4.7394369000000003 23.3812352718320007   T   T   T
  2.0736275000000002  1.5798123000000002 20.2215978999999990   F   F   F
  6.2208825000000001  1.5798123000000002 20.2215978999999990   F   F   F
  2.0736275000000002 14.2183107000000000 26.5408474999999981   T   T   T
  6.2208825000000001 14.2183107000000000 26.5408474999999981   T   T   T
  2.0736275000000002 11.0586860999999992 23.3812101281680000   F   F   F
  6.2208825000000001 11.0586860999999992 23.3812101281680000   F   F   F
  2.0736275000000002  7.8990615000000002 23.3812226999999950   F   F   F
  6.2208825000000001  7.8990615000000002 23.3812226999999950   F   F   F
  2.0736275000000002  4.7394369000000003 20.2215853281680005   F   F   F
  6.2208825000000001  4.7394369000000003 20.2215853281680005   F   F   F
  2.0736275000000002  1.5798123000000002 23.3812099281680013   T   T   T
  6.2208825000000001  1.5798123000000002 23.3812099281680013   T   T   T
  2.0736275000000002 14.2183107000000000 23.3812354718319995   F   F   F
  6.2208825000000001 14.2183107000000000 23.3812354718319995   F   F   F
  2.0736275000000002 11.0586860999999992 26.5408600718320002   T   T   T
  6.2208825000000001 11.0586860999999992 26.5408600718320002   T   T   T
  3.9026996671600003  4.2087621503069998 26.7215051483689976   T   T   T
  2.3165488143700004  3.4245433245869998 26.8167614962729957   T   T   T
  3.3380757824400007  3.5399170168560001 28.2655347182399979   T   T   T
  3.1179892541000003  6.0160990177530005 28.2318120964189987   T   T   T
  1.6322102668200003  6.8657852651850000 26.6113417308029980   T   T   T
  0.3802452219300000  4.6489768477019995 28.0342944507859997   T   T   T
  1.3718953649800001  4.7486472057090001 29.5055578807989995   T   T   T
  0.6992271930000000  6.2197210251000001 28.7970215592119985   T   T   T
  3.0261856174200004  4.0582218362400004 27.3552974167039977   T   T   T
  2.3836845783100000  5.3937635584140002 27.6967201671140018   T   T   T
  1.1332871958100001  5.2431126574859999 28.5595757449059988   T   T   T
  2.0736275000000002  6.0250723516170002 26.4319003089949973   T   T   T
