La Ga Cu  H  C  O 
 1.0000000000000000
    10.2276310000000006    0.0000000000000000    0.0000000000000000
    -0.0000000000000000    9.1763879999999993    3.0587960000000001
     0.0000000000000000    0.0000000000000000   36.7055539999999993
 La  Ga  Cu  H   C   O  
  11  28  16  12   6   1
Selective dynamics
Cartesian
  7.7227818917900004  4.5881939999999997 16.3135876290120017   F   F   F
  7.7227818917900004  7.6469869412039992 19.3723623285500004   F   F   F
  2.5048491082100002  7.6469869412039992 16.3135783970679995   F   F   F
  2.5048491082100002  4.5881939999999997 19.3723715604939990   F   F   F
  2.5048491082100002  1.5294010587960001 16.3135968609560003   F   F   F
  7.7227818917900004  4.5881939999999997 22.4311554919759963   F   F   F
  7.7227818917900004  1.5294010587960001 19.3723807924380012   F   F   F
  7.7227818917900004  7.6469869412039992 25.4899668970680011   T   T   T
  2.5048491082100002  7.6469869412039992 22.4311829655860002   F   F   F
  2.5048491082100002  4.5881939999999997 25.4899761290119997   T   T   T
  2.5048491082100002  1.5294010587960001 22.4311647239200020   T   T   T
  6.5032493989810005  7.6469869412039992 16.3135783970679995   F   F   F
  6.5032493989810005  4.5881939999999997 19.3723715604939990   F   F   F
  6.5032493989810005  1.5294010587960001 16.3135968609560003   F   F   F
  1.1946179836930002  4.5881939999999997 16.3135876290120017   F   F   F
  1.1946179836930002  7.6469869412039992 19.3723623285500004   F   F   F
  3.7243816010190001  4.5881939999999997 16.3135876290120017   F   F   F
  3.7243816010190001  7.6469869412039992 19.3723623285500004   F   F   F
  9.0330130163070006  7.6469869412039992 16.3135783970679995   F   F   F
  9.0330130163070006  4.5881939999999997 19.3723715604939990   F   F   F
  9.0330130163070006  1.5294010587960001 16.3135968609560003   F   F   F
  5.1138155000000003  6.1175950587959997 17.8429948609560007   F   F   F
  5.1138155000000003  3.0587929412039996 14.7841803970679990   F   F   F
  5.1138155000000003  0.0000000000000000 17.8429735604939985   F   F   F
  6.5032493989810005  7.6469869412039992 22.4311829655860002   F   F   F
  6.5032493989810005  4.5881939999999997 25.4899761290119997   T   T   T
  6.5032493989810005  1.5294010587960001 22.4311647239200020   T   T   T
  1.1946179836930002  4.5881939999999997 22.4311554919759963   F   F   F
  1.1946179836930002  1.5294010587960001 19.3723807924380012   F   F   F
  1.1946179836930002  7.6469869412039992 25.4899668970680011   T   T   T
  3.7243816010190001  4.5881939999999997 22.4311554919759963   F   F   F
  3.7243816010190001  1.5294010587960001 19.3723807924380012   F   F   F
  3.7243816010190001  7.6469869412039992 25.4899668970680011   T   T   T
  9.0330130163070006  7.6469869412039992 22.4311829655860002   F   F   F
  9.0330130163070006  4.5881939999999997 25.4899761290119997   T   T   T
  9.0330130163070006  1.5294010587960001 22.4311647239200020   T   T   T
  5.1138155000000003  6.1175950587959997 23.9605627239200025   F   F   F
  5.1138155000000003  3.0587929412039996 20.9017849655859997   F   F   F
  5.1138155000000003  0.0000000000000000 23.9605781290119992   T   T   T
  0.0000000000000000  3.0587929412039996 17.8429643285499999   F   F   F
  0.0000000000000000  0.0000000000000000 14.7841896290120012   F   F   F
  5.1138155000000003  3.0587929412039996 17.8429643285499999   F   F   F
  5.1138155000000003  0.0000000000000000 14.7841896290120012   F   F   F
  0.0000000000000000  6.1175950587959997 17.8429948609560007   F   F   F
  0.0000000000000000  3.0587929412039996 14.7841803970679990   F   F   F
  0.0000000000000000  0.0000000000000000 17.8429735604939985   F   F   F
  0.0000000000000000  6.1175950587959997 20.9017787924380016   F   F   F
  0.0000000000000000  3.0587929412039996 23.9605688970680006   T   T   T
  0.0000000000000000  0.0000000000000000 20.9017574919759994   F   F   F
  5.1138155000000003  6.1175950587959997 20.9017787924380016   F   F   F
  5.1138155000000003  3.0587929412039996 23.9605688970680006   T   T   T
  5.1138155000000003  0.0000000000000000 20.9017574919759994   F   F   F
  0.0000000000000000  6.1175950587959997 23.9605627239199990   F   F   F
  0.0000000000000000  3.0587929412039996 20.9017849655859997   F   F   F
  0.0000000000000000  0.0000000000000000 23.9605781290119992   T   T   T
  5.0151393161120001  3.5667151933919996 28.0703276530260020   T   T   T
  2.3366352611529999  4.6475193484200004 29.0723189052839963   T   T   T
  3.8432369008700000  5.5290031796999992 28.9643311494060001   T   T   T
  3.8435335021690000  1.4485020221879998 27.6064765468040001   T   T   T
  2.3366352611529999  2.0906289488759997 28.2197284610040029   T   T   T
  3.3682350343369998  4.7479549150800002 31.2979999345999964   T   T   T
  4.8859336536890003  4.1030383664399999 30.6769909133720020   T   T   T
  4.8859336536890003  1.5634179291119998 29.8301204176100008   T   T   T
  3.3683373106470000  0.6747856915800000 29.9399465101140017   T   T   T
  3.6488300908220004  2.3144594049720002 31.8097029307240007   T   T   T
  2.2091376131070000  2.6358348655079999 30.8458701351780000   T   T   T
  3.8093323041050002  3.3491522102999998 26.1482872037100016   T   T   T
  3.9184304439820004  3.5559696430439995 28.0855023410039983   T   T   T
  3.4254381745200000  4.5326676762120002 29.1525205428599996   T   T   T
  3.4254381745200000  2.1345838473959997 28.3528289166020002   T   T   T
  3.7963329851040002  4.0647728284799998 30.5558809386439982   T   T   T
  3.7963329851040002  1.6665697066199998 29.7562596646999999   T   T   T
  3.3058362576060003  2.6435522078159996 30.8224183448280016   T   T   T
  3.4715341074369999  3.9834700307999995 26.8033130972999949   T   T   T
