Zr  O  C  H 
 1.0000000000000000
    23.8688000000000002    0.0000000000000000    0.0000000000000000
     0.0000000000000000   11.1967999999999996    0.0000000000000000
    -0.7466134400000000    0.0000000000000000    7.7895008399999996
 Zr  O   C   H  
   8  40  64  32
Cartesian
 19.1231348244863995  2.5309246719999998  1.0939574979696001
 15.9334517355136001  2.5309246719999998  6.6955433420303994
  3.9990517355135999  8.6658753280000003  6.6955433420303994
  7.1887348244864002  8.6658753280000003  1.0939574979696001
  6.8154281044863998  8.1293246719999992  4.9887079179695997
  4.3723584555136004  8.1293246719999992  2.8007929220304000
 16.3067584555135987  3.0674753279999996  2.8007929220304000
 18.7498281044864008  3.0674753279999996  4.9887079179695997
 18.4248179575616007  3.0955792959999999  2.9433407874023998
 16.6317686024383988  3.0955792959999999  4.8461600525976003
  4.6973686024383996  8.1012207039999993  4.8461600525976003
  6.4904179575616006  8.1012207039999993  2.9433407874023998
  6.1171112375616001  8.6939792960000002  6.8380912074023996
  5.0706753224384000  8.6939792960000002  0.9514096325975999
 17.0050753224384010  2.5028207039999999  0.9514096325975999
 18.0515112375616020  2.5028207039999999  6.8380912074023996
 18.7551614686367998  0.3949111360000000  0.7519205160852001
 16.3014250913631997  0.3949111360000000  7.0375803239148000
  4.3670250913631996 10.8018888639999986  7.0375803239148000
  6.8207614686367997 10.8018888639999986  0.7519205160852001
  6.4474547486367992  5.9933111360000000  4.6466709360851999
  4.7403318113632000  5.9933111360000000  3.1428299039147998
 16.6747318113631984  5.2034888639999997  3.1428299039147998
 18.3818547486368011  5.2034888639999997  4.6466709360851999
 21.1081853066847991  3.2807743679999999  0.5049933394571999
 13.9484012533152004  3.2807743679999999  7.2845075005427988
  2.0140012533151999  7.9160256320000002  7.2845075005427988
  9.1737853066847990  7.9160256320000002  0.5049933394571999
  8.8004785866847985  8.8791743679999993  4.3997437594572002
  2.3873079733151998  8.8791743679999993  3.3897570805427999
 14.3217079733152008  2.3176256319999999  3.3897570805427999
 20.7348785866848004  2.3176256319999999  4.3997437594572002
 18.7735658109503980  4.6950421760000003  0.7192825075656000
 16.2830207490496015  4.6950421760000003  7.0702183324343997
  4.3486207490495996  6.5017578239999994  7.0702183324343997
  6.8391658109504005  6.5017578239999994  0.7192825075656000
  6.4658590909504001 10.2934421759999992  4.6140329275655994
  4.7219274690496000 10.2934421759999992  3.1754679124343999
 16.6563274690496002  0.9033578240000000  3.1754679124343999
 18.4002590909503994  0.9033578240000000  4.6140329275655994
 20.5942362883200012  1.4506574080000001  2.3134817494799997
 14.4623502716800001  1.4506574080000001  5.4760190905199995
  2.5279502716800004  9.7461425920000000  5.4760190905199995
  8.6598362883200011  9.7461425920000000  2.3134817494799997
  8.2865295683200006  7.0490574079999995  6.2082321694800005
  2.9012569916800004  7.0490574079999995  1.5812686705200001
 14.8356569916800005  4.1477425920000002  1.5812686705200001
 20.2209295683199990  4.1477425920000002  6.2082321694800005
 21.1386989693055973  1.5691195519999999  3.4488793919183998
 13.9178875906944004  1.5691195519999999  4.3406214480815999
  1.9834875906943998  9.6276804479999996  4.3406214480815999
  9.2042989693056008  9.6276804479999996  3.4488793919183998
  8.8309922493056003  7.1675195519999999  7.3436298119184000
  2.3567943106943998  7.1675195519999999  0.4458710280816000
 14.2911943106943991  4.0292804479999997  0.4458710280816000
 20.7653922493055987  4.0292804479999997  7.3436298119184000
 22.3564559905952009  0.7602627199999999  3.6857581124627998
 12.7001305694048021  0.7602627199999999  4.1037427275371998
  0.7657305694048000 10.4365372799999996  4.1037427275371998
 10.4220559905952008 10.4365372799999996  3.6857581124627998
 10.0487492705952004  6.3586627199999990  7.5805085324627992
  1.1390372894048000  6.3586627199999990  0.2089923075372000
 13.0734372894048025  4.8381372799999998  0.2089923075372000
 21.9831492705951987  4.8381372799999998  7.5805085324627992
 22.8565500607871996 11.1566034880000000  2.6493650257007997
 12.2000364992127999 11.1566034880000000  5.1401358142991995
  0.2656364992128000  0.0401965120000000  5.1401358142991995
 10.9221500607871995  0.0401965120000000  2.6493650257007997
 10.5488433407871991  5.5582034880000002  6.5441154457007995
  0.6389432192128000  5.5582034880000002  1.2453853942991999
 12.5733432192128003  5.6385965119999994  1.2453853942991999
 22.4832433407872010  5.6385965119999994  6.5441154457007995
  0.1278092974016000 10.3935415679999998  2.8576562781624002
 11.0599772625983999 10.3935415679999998  4.9318445618376003
 22.9943772625984018  0.8032584319999999  4.9318445618376003
 12.0622092974016013  0.8032584319999999  2.8576562781624002
 11.6889025774016009  4.7951415679999991  6.7524066981623996
 23.3676839825984004  4.7951415679999991  1.0370941418376001
 11.4332839825983985  6.4016584320000005  1.0370941418376001
 -0.2454974225983999  6.4016584320000005  6.7524066981623996
 16.1040698217599996  8.8409932799999993  7.1741302736400003
 18.9525167382399999  8.8409932799999993  0.6153705663600000
  7.0181167382399998  2.3558067199999999  0.6153705663600000
  4.1696698217600003  2.3558067199999999  7.1741302736400003
  4.5429765417599999  3.2425932800000004  3.2793798536399996
  6.6448100182400003  3.2425932800000004  4.5101209863599996
 18.5792100182399977  7.9542067200000002  4.5101209863599996
 16.4773765417600018  7.9542067200000002  3.2793798536399996
  7.0194595009279999  3.7432022080000000  0.6138126661919999
  4.1683270590720003  3.7432022080000000  7.1756881738080001
 16.1027270590719986  7.4535977920000001  7.1756881738080001
 18.9538595009280009  7.4535977920000001  0.6138126661919999
 18.5805527809280022  9.3416022079999994  4.5085630861919999
 16.4760337790720008  9.3416022079999994  3.2809377538079998
  4.5416337790719998  1.8551977920000000  3.2809377538079998
  6.6461527809280003  1.8551977920000000  4.5085630861919999
 17.9016000000000020  5.2757082239999997  0.0000000000000000
  5.9672000000000001  5.9210917759999990  0.0000000000000000
  5.5938932799999996 10.8741082240000004  3.8947504199999998
 17.5282932800000033  0.3226917760000000  3.8947504199999998
 17.9016000000000020 11.0156357759999999  0.0000000000000000
  5.9672000000000001  0.1811642240000000  0.0000000000000000
  5.5938932799999996  5.4172357759999992  3.8947504199999998
 17.5282932800000033  5.7795642239999996  3.8947504199999998
 17.9016000000000020  9.5353068479999994  0.0000000000000000
  5.9672000000000001  1.6614931519999998  0.0000000000000000
  5.5938932799999996  3.9369068479999996  3.8947504199999998
 17.5282932800000033  7.2598931520000001  3.8947504199999998
 17.9016000000000020  6.7589483200000000  0.0000000000000000
  5.9672000000000001  4.4378516799999996  0.0000000000000000
  5.5938932799999996  1.1605483200000000  3.8947504199999998
 17.5282932800000033 10.0362516799999995  3.8947504199999998
 22.3366184754720010 11.1497734400000006  1.6938269576580001
 12.7199680845280003 11.1497734400000006  6.0956738823419991
  0.7855680845280000  0.0470265600000000  6.0956738823419991
 10.4022184754719991  0.0470265600000000  1.6938269576580001
 10.0289117554719986  5.5513734399999999  5.5885773776579999
  1.1588748045280000  5.5513734399999999  2.2009234623420002
 13.0932748045280007  5.6454265599999998  2.2009234623420002
 21.9633117554719988  5.6454265599999998  5.5885773776579999
  0.5340983236160000  9.7596907200000000  2.0727861735239999
 10.6536882363840011  9.7596907200000000  5.7167146664759994
 22.5880882363839994  1.4371092799999998  5.7167146664759994
 12.4684983236160001  1.4371092799999998  2.0727861735239999
 12.0951916036159997  4.1612907199999993  5.9675365935239997
 22.9613949563840016  4.1612907199999993  1.8219642464760000
 11.0269949563839997  7.0355092799999994  1.8219642464760000
  0.1607916036160000  7.0355092799999994  5.9675365935239997
  7.8208930971040003  4.3055055040000001  1.0878037923060000
  3.3668934628959999  4.3055055040000001  6.7016970476939992
 15.3012934628960000  6.8912944959999995  6.7016970476939992
 19.7552930971040013  6.8912944959999995  1.0878037923060000
 19.3819863771039991  9.9039055040000008  4.9825542123059998
 15.6746001828960004  9.9039055040000008  2.8069466276939998
  3.7402001828959999  1.2928944959999999  2.8069466276939998
  7.4475863771040007  1.2928944959999999  4.9825542123059998
 15.3056574987072000  9.4056479040000003  6.6960107120807999
 19.7509290612928012  9.4056479040000003  1.0934901279192000
  7.8165290612927993  1.7911520960000000  1.0934901279192000
  3.3712574987072004  1.7911520960000000  6.6960107120807999
  3.7445642187072004  3.8072479040000000  2.8012602920807996
  7.4432223412927998  3.8072479040000000  4.9882405479191991
 19.3776223412927990  7.3895520959999992  4.9882405479191991
 15.6789642187072005  7.3895520959999992  2.8012602920807996
