 O Si Au 
 1.0000000000000000
    18.1541673199999991    0.0003963400000000    0.0000389000000000
    -9.0767404299999992   15.7217942399999995    0.0000413600000000
     0.0000163600000000    0.0000295300000000    7.6305892899999996
 O   Si  Au 
  72  36   8
Cartesian
 15.3679310946594505  4.3223912159645925  0.0731393223630301
  6.1447458612683858 11.4335857760137767  0.2219916285078147
  4.6440541509085014  0.2707237857060766  0.1364605850302838
 11.3023128835953202 11.6528745097779858  4.0623564173613831
  2.0959174664702482  4.6064130966969712  4.0131523412968821
 12.6388520132826745  0.2192389466074596  4.0215894586728078
 12.8603331191365378  0.1553248370264341  0.1809366852458653
  2.2099254519534521  4.6795729317350787  0.1757253941611204
 11.0934123674335936 11.8789711005663836  0.2929841539517702
  4.5274585718945461  0.1064155058065365  4.0602572801097843
  6.1907767432008187 11.4891610942755271  4.0556868374174311
 15.1772948523818254  4.4831162372380877  4.0830713604716031
 -2.4084198303994042  6.9065055726672933  7.0919929541523832
  3.6294120053274703 10.7579028529699059  7.2732488093823395
 -2.4673259963467649 14.1948096964950885  7.2335544848672280
 10.5393174198986674  9.2017268095050202  3.3849553041973932
  4.6287878045258841  5.1657516813947391  3.3167679353360673
 10.6090245636013254  1.8121601554117432  3.6274995668479040
  1.6731058674723407 14.1668339962680356  7.2796181277543068
  1.4332447270598621  7.2551621815036391  7.4099784991434801
 -4.6917557598370339 10.7676614446474748  7.1994461187655450
  6.0722851163269862  2.0988467507012456  3.1377596580062646
  6.9751055964618898  8.9857146979206650  3.4347388686692031
 12.7452322004545930  5.5166949053616126  3.6530102109420968
 10.8196517797669500  9.3033051456398823  0.8582552141289777
  4.8108724505652694  5.4279981914795439  0.6801922724540790
 10.8438376752181167  1.6622384388365865  0.9772788528121840
 -2.1605470563583253  7.0908325635389655  4.5138248661291032
  3.6721329294041443 10.9470456173332824  4.6665204545118950
 -2.5267310807498480 14.2589080268826613  4.6241028332705820
  6.6732514404389427  1.8811945704218376  0.6252278036501128
  6.6228676646494007  8.9399260807048613  0.7791651279048233
 13.1447650790941282  5.2348166019851208  1.0845547663912682
  1.8032700645589768 14.0250226470243717  4.6156285855445907
  1.1630323453650289  6.9607492225149201  4.8867036637566628
 -4.2495632370828655 10.8800249472220294  4.4191790354954676
 -0.3365325999001421  5.1874976338521188  0.2289779216927042
  4.1635686962177667 13.2405754183534050  0.2404897763856250
 -4.9289509552084194 13.3718454328148404  0.1497164643888659
  8.7205454810215191 10.8896249615461276  4.2971948851880368
  3.8818254269788310  2.7799207981376113  4.2846856072714772
 13.1374168033711509  2.7581329551990472  4.1548189899442454
  8.6696892270152155 10.7477299003852611  0.1172672949058025
  4.3415872023649911  2.9383412597007736  0.0675088040022578
 13.2773256465841101  2.7537021863143551  0.3193342410115428
 -0.4591842795683554  5.1150876023140768  4.0395180903156698
  4.3994144047007113 13.4600934193712725  4.0686249289328558
 -4.9452961463306364 13.3906614972743583  3.8128964178576026
 -2.0164020293983569  6.0324683543835134  2.0533213117936455
  4.2737644879093857 11.4774648485288306  2.1881136589222527
 -3.3485027352572954 14.4390103109337868  2.0546100194537771
 10.5483866982054479 10.0314263866612627  5.9447681328265043
  4.0453348501194633  4.8278792995878792  5.8758238232576607
 11.6879006085634902  1.7117879114411225  6.0577879416841069
  2.6512841021133191 14.5247180881843008  2.1208850310639091
  1.2157574831088662  6.3215553191898355  2.2455049072845328
 -5.1595207642402814 11.3017069211288224  2.0109991508083311
  5.7705516738275326  1.6530007228151404  5.7645816982252915
  6.8712894640002338  9.6994990647009054  5.9542899577343382
 13.3554155898013782  4.6372539756883251  5.9801699010133280
  6.8286359295129850  4.2656460311636870  1.8636199641825852
 11.6128023730830385  3.6537935537437582  2.2525897359584288
  8.8315030671780388  7.8653919911212027  1.8336938386921786
  1.5795073551552936 11.8474218956136585  6.1377535346015186
 -2.4859216662636956 11.9031741966972042  6.0155962447269449
 -0.5217275900302156  8.5564266278365739  6.0737089444215036
  8.5985247739513753  2.1808721076529527  2.2390474010026749
 11.4828185359498907  7.1064656650687681  2.3631196122487426
  6.3929295154992074  6.8107971975103707  2.2606436281793152
 -0.4064115361204012 13.4893643065276763  5.8286662493621195
 -2.9746647200492013  9.2573937237132462  5.9823864830741860
  1.9543200715682569  9.3174680730196275  5.7171329645895321
 -1.9067080856032792  5.6135444917923021  0.4858188647417131
  4.5764835256812519 11.6683184842195917  0.5938856320890389
 -3.7671455961374276 14.5646096212380023  0.4572818701121290
 10.3085085879057292 10.4364779716385510  4.3523560810243280
  3.6671517845131807  4.3618892162714999  4.3591220941996216
 11.9635553922587157  1.6711254085183966  4.4400785698793159
  3.0387003019839289 14.4098322830605738  0.4993114049254820
  1.1360682993641329  5.8460797543178282  0.6875180962316590
 -5.4187964891423261 11.8585336157472643  0.5347434505765980
  5.0536507315357415  1.6070403868415144  4.2635186924563975
  7.1865654384121278 10.2548461538003348  4.4033007282932211
 13.5850959943938463  4.3169510776272322  4.4394888507927437
 10.2489743756958216 10.4916193767056178  7.5257412227143199
  3.8310881767995801  4.4761251084049478  7.4698688173280940
 12.1074442076459832  1.6361511590135236  0.0000542466848598
 -1.9218692680672478  5.6575021507707035  3.6360920715758875
  4.6544258741391387 11.8691498496232128  3.7014414697577172
 -3.7783487607878867 14.4788954680167770  3.5947187881106140
  5.3143413314521037  1.7246473714476214  7.3115179266997625
  7.1267780709773296 10.1884028110343152  7.4620880646339192
 13.7098538911093311  4.2632416714481547  7.5305266306864578
  3.1170093236129075 14.4511115325549877  3.6882390778419452
  1.0129878690300909  5.7898033061765579  3.8070474977327509
 -5.2798294307526676 11.7926735689246698  3.5311410752169574
  7.0720436197773546  2.6678150580171103  1.9906516373123571
 11.8584173202692362  5.4037187136180425  2.2374451983279298
  7.2319463797274217  8.2194166713160257  2.0415302616599722
  1.2067987425420141 13.3686964950644889  5.9229040410291107
 -3.6497274498181400 10.7619808730272446  5.9371600038953281
  1.0102918691942659  8.0614262578436726  6.1139512170824819
 10.4202224567648241  8.2745319317203947  2.0748492542629462
 10.2021106250777560  2.6372601874074495  2.2172726111651162
  5.6526121456764180  5.4197607478211740  2.0498590303038147
 -1.9998797112211051  7.9400343017200079  5.8863566307651976
 -2.0135256608385648 13.4274602837887684  5.8927782113871920
  2.7059786522267184 10.7196162394043721  5.9558730566655660
  7.4170640348701697  4.6150139035248632  4.6498610620625920
 10.1948131174334389  4.6847531677320253  0.4268214934627850
  8.3503112641128059  3.2547223094408579  6.7052975810698880
 10.4537574089602856  6.9418113670913169  6.7684617644827307
 10.2683910110245264  4.6413288869531790  5.3388102122150336
  7.9852594797780627  5.8436469388464314  6.9822633999941042
  9.5248844749454857  5.0476398405323435  2.8189123878279521
  9.0617600903382716  6.9289940504410215  4.5963847075868811
