Zn Co  O 
 1.0000000000000000
     5.7990979999999999    0.0000000000000000    0.3623930000000000
     4.0985279999999999   11.6123910000000006    0.0329280000000000
     0.0000000000000000    0.0000000000000000   34.8430269999999993
 Zn  Co  O  
  12  18  44
Cartesian
  2.9704229050160000  6.9085133280659994 12.8703715827909999
  9.1367183002379999 10.2619512134370012 13.3162040590199986
  5.8869612938679996  2.3925822044670002 15.0751319135379998
  6.2541528899919996  5.7460200898379998 15.1586058704010007
  7.1029296827200001  9.4890420808679998 16.9504620873120011
  3.3715932788440002  1.2300889662390000 17.0009732011479997
  4.2203700715719998  4.9731109572690002 18.7928642610859988
  4.5875616676959998  8.3265488426400012 18.8763033749219993
  1.3378104604240000  0.4571798336700000 20.6352315918330014
  1.7050020565480002  3.8106177190410007 20.7187055486960006
  8.3528710501779990  7.5536397100709998 22.8729544032139991
  8.7200684453999990 10.9070775954420007 22.9563938794429987
  4.7431455507799996  3.9365308746540002 12.6046175018629985
  6.0535714529120002  8.5852264645559995 13.0932879856379998
  3.2654676544740000  1.6215426668490003 13.5490649829750005
  5.9591139396319992 11.0329907510550012 14.4799128326099993
  3.1710060426659998  4.0692953409569999 14.9356897970189983
  4.4814360433260001  8.7180025432499999 15.4243603137219996
  3.0765543284840002  6.5170596274560006 16.3223150063839988
  4.3869744315180004 11.1657552173580008 16.8109851277659992
  1.5988764321780000  4.2020714196510003 17.2667624874959991
  5.9930869182380002  2.0011285038570001 18.5270749747379995
  7.3035169188979996  6.6498357061500002 19.0157803344680012
  8.6139370219319993 11.2985312960519995 19.5044504558500016
  7.2090553070899990  9.0975883802579993 20.4024051485119990
  4.4209573077500002  2.1339045825510001 20.8581476652149966
  5.7313774107840008  6.7826001724530007 21.3468526296239993
  4.3264956959419996  4.5816572566589997 22.2447724792589980
  5.6369198975040007  9.2303644589520015 22.7334774765960006
  2.8488218981640001  2.2666806612450001 23.1892548363260005
  5.5656878474519997 10.3620848610300005 12.7649904936389991
  5.0513016075260007  2.0901490932629998 13.0263991159619987
  2.9573074991999997  3.4679128358489999 13.1272484929209998
  6.5414492592739997  6.8083680680820002 13.4215851152439996
  4.2683898868140000  8.3296841882100008 13.5941643528369998
  7.6772730217280003 11.4904260573269994 14.0439638320990010
  1.5473027732800000  1.1641073605770000 13.9850136210929996
  4.9561876087640000  4.3248376173030003 14.4348134298199984
  2.6831323348319995  5.8461653498219999 14.6073927003410002
  6.2672740949060000  9.1866205820549993 14.9017293226640000
  4.1732758880519993 10.5643727122500000 15.0025786666949994
  3.6588896481259998  2.2924369444830002 15.2639872890180008
  1.3858244765680001  3.8137530646110003 15.4365313211909996
  4.7947134105800000  6.9744949337280007 15.8863311628459982
  8.5623691621320006  8.2605672369780017 16.2227019518399977
  6.1721600961440002 11.4213091060950003 16.3101436365219996
  5.5996707236840004  1.3302342262230000 16.8121530310880019
  3.3847144837580005  4.6706894584560006 16.7440966534109990
  7.0898142769039998  6.0484415886510003 17.2073389974420010
  4.8748522378799999  9.3888968208840016 17.1392822573719990
  8.4008908654199992 10.9102129410120003 17.6742544949649982
  1.9121537994320001  2.4585638101290002 17.7287333366199995
  5.6798095509839994  3.7446361133790003 18.0651041256139990
  3.2896004849959999  6.9053779824959998 18.1525109672690022
  6.8156391125360001  8.4266941026239994 18.6874832048619979
  0.5021490735120000  0.1547583348570000 18.5864984647919975
  4.2072488666580004  1.5325104650520001 19.0497408088229996
  1.9922926267320000  4.8729656972850002 18.9816844311460002
  5.5183353528000003  6.3942934298040006 19.5166567016669994
  8.9272201882840001  9.5550236865299993 19.9664565103939999
  6.8957779398360000 10.8410959897799994 19.9404342993879986
  6.2061388738479994  2.3894468588970001 20.3573061410430007
  3.9330737022899998  3.9107629790250003 20.5298501732159977
  7.5172154623639997  7.2512182112580010 20.8241867955389992
  5.4232172555100000  8.6289703414530017 20.9250361395700004
  4.9088351141119997  0.3570461860770000 21.1864796378479987
  2.6357757416520000  1.8783623062050001 21.3590240324139984
  6.0446605771359998  5.0390925629310006 21.8088238411410025
  4.0132183286880005  6.3251648661810007 21.7828016301350011
  7.4221014636020000  9.4859067352980002 22.2326011093969989
  5.1490420911420003 11.0072228554260008 22.4051803469900008
  4.6346558512159994  2.7352870876590001 22.6665889693130005
  2.5406617428900002  4.1130508302450002 22.7674383462719980
  6.1248035029640002  7.4535060624780005 23.0617749685949995
