Na12 Sc12 H1 O23
1.0
9.555349 0.000000 0.000000
0.000000 5.775083 -0.188051
0.000000 0.000000 31.396257
Na Sc H O
12 12 1 23
direct
0.083333 0.250000 0.375000 Na
0.416667 0.250000 0.375000 Na
0.750000 0.250000 0.375000 Na
0.250000 0.416667 0.458333 Na
0.583333 0.416667 0.458333 Na
0.916667 0.416667 0.458333 Na
0.083333 0.583333 0.541667 Na
0.416667 0.583333 0.541667 Na
0.750000 0.583333 0.541667 Na
0.250000 0.750000 0.625000 Na
0.583333 0.750000 0.625000 Na
0.916667 0.750000 0.625000 Na
0.250000 0.750000 0.375000 Sc
0.583333 0.750000 0.375000 Sc
0.916667 0.750000 0.375000 Sc
0.083333 0.916667 0.458333 Sc
0.416667 0.916667 0.458333 Sc
0.750000 0.916667 0.458333 Sc
0.250000 0.083333 0.541667 Sc
0.583333 0.083333 0.541667 Sc
0.916667 0.083333 0.541667 Sc
0.083333 0.250000 0.625000 Sc
0.416667 0.250000 0.625000 Sc
0.750000 0.250000 0.625000 Sc
0.083333 0.381789 0.686471 H
0.083333 0.624955 0.414065 O
0.416667 0.624955 0.414065 O
0.750000 0.624955 0.414065 O
0.416667 0.875045 0.335935 O
0.750000 0.875045 0.335935 O
0.250000 0.791621 0.497399 O
0.583333 0.791621 0.497399 O
0.916667 0.791621 0.497399 O
0.250000 0.041712 0.419268 O
0.583333 0.041712 0.419268 O
0.916667 0.041712 0.419268 O
0.083333 0.958288 0.580732 O
0.416667 0.958288 0.580732 O
0.750000 0.958288 0.580732 O
0.083333 0.208379 0.502601 O
0.416667 0.208379 0.502601 O
0.750000 0.208379 0.502601 O
0.583333 0.124955 0.664065 O
0.916667 0.124955 0.664065 O
0.250000 0.375045 0.585935 O
0.583333 0.375045 0.585935 O
0.916667 0.375045 0.585935 O
0.083333 0.541712 0.669268 O
