 O Si Au 
 1.0000000000000000
    11.9587094399999998   -0.0000003700000000    0.0000010700000000
    -0.0000003700000000   11.9587162199999995   -0.0000031600000000
     0.0000010700000000   -0.0000031600000000   11.9587174399999991
 O   Si  Au 
  48  24   8
Cartesian
 11.7979130344632228  2.2068126268014745  6.5880122278741027
  5.7835526742984369 11.6640679401738296  3.3285873259372973
  2.4043507969424951  5.5657682974660165  0.6380217919082385
  5.7273913371917997 11.5404348522581603  9.8710731087924035
  9.0520845132424004  5.4630122685903855  0.9246044670366073
  2.2389049248947144 11.4023624938763781  6.6990626155412683
 11.8770332209897909  5.5113481825143671  2.9367653488902250
  5.8020023947317867  2.0605897613293713  0.7083345404911562
 11.9496327650722662  5.5340696093304809  9.7713084565460040
  5.8143432128348396  8.9202844575108298  0.7190583830578634
 11.7852902986271779  8.9188263622159116  6.6912037805690403
  8.9623777817758228 11.5362716767810074  6.7299674972806729
  1.1882374887383473  0.9030066616842554  4.6364978229234817
  3.6895469895822699  0.9522507576874663  2.0202271144481356
  1.3346425103032096  3.5441606214419883  2.0195798501740305
  1.1522878041081914  0.8743844818641050  8.5217247571249217
  3.8324912400385713  0.8073607856944258 11.3563022011918342
  0.9876175044829426  3.6884443633064099 11.4245987361023857
 10.4567741364526583  0.9526637281147633  4.7123184623027976
  7.8113068209394187  0.8963734110918838  2.0124470368521847
 10.6576665984006436  3.4928247437494706  1.7538164996460455
 10.4353555859675122  0.9696694667046408  8.4648716672658182
  7.6716906681302213  0.9619725490733542 11.2355882203287010
 10.2525937546526169  3.9960890932042155 11.0244390333808848
  1.0186366379002949 10.1969650023453813  4.7098203474611253
  1.2154505201404415  7.6582738890893802  1.9768848156664729
  3.9622754798110011 10.2190933008774447  2.0658952712353091
  1.1459550339153357 10.1137598748551731  8.6455689455012692
  1.1368985470861119  7.4716518259078972 11.3327253813912936
  3.9111085736945217 10.2290659921193541 11.2782773388310531
 10.4721575204634583 10.2716011407961840  8.5935829213825059
  7.7040189780149904 10.2401911409012634 11.4567231455691960
 10.4445119609583355  7.0798048220537408 11.3547134960262284
 10.2926903278761266 10.2163105193265782  4.9008765120544222
  7.7426590131209840 10.1384525416962390  2.1758946643101784
 10.4144839905149329  7.4722537279668204  2.0250327997724358
 11.9235413045424892  3.2495193093049304  4.2132382543963782
  3.4340257247845432 11.4766302958042701  4.3392458811478862
  3.4821126560472577  3.2153690514830950  0.1896739287343463
 11.8375720288459192  3.0048220982975815  9.1738889027499368
  3.2999467746715090 11.3666608833679081  9.0613358621750955
  8.2477530646902650 11.6528766503610175  4.2630791609247964
  8.3396998036853205  3.0740300659221793  0.5065152378623528
  8.2202715535604991 11.3641905327471715  9.0839083822396098
 11.6627470536331206  7.9779429851993289  4.1664011431068193
  3.4401092580344801  7.9542913824144721  0.6512243950099543
 11.7016927116352090  7.9376400778823646  9.1426188894677836
  8.2310999956807134  7.9896788619686214  0.6789115173606357
 11.8316853794982446  1.7746668907605185  5.0224497668444554
  4.1749185877532344 11.6172323826044774  2.9244141159235331
  2.0656583111891789  3.9793999925630623  0.6485713242050144
 11.8018245207569912  1.7667842014035213  8.1256894658271310
  4.1993525779625367 11.5149728574587868 10.4063268745766671
  7.4025350424604470 11.5552670002508666  2.9188372340343864
  9.6250395698425404  4.0133497375653064  0.5704259586868446
  7.3096869796585953 11.5262536517651846 10.4276906810750241
  1.9868313284910266 11.4558510357786218  5.0895385594293376
 11.9005339094915978  3.9414723072587212  2.7364201766766709
  4.2003834431888460  1.7721280175524168  0.6280728237892795
  1.9339380009355733 11.4500461574460441  8.2557183011477822
 11.7702176660409368  4.0042951637506823 10.3961582886715753
 11.7899736264080932  7.1888370665776185  2.7314518966426324
  4.2511682682493657  9.3610544425818603  0.7228615968051901
 11.8278358370937937  7.0166637098150009 10.4665909951121279
 11.7264069394623593  9.3121374766637537  8.2828952101098228
  9.5139304039046415  7.0210707500837160  0.7274523221775789
 11.6214328644697673  9.3307728679462496  5.1112920529296879
  2.1103909679389323  7.1102600472353918  0.7054202106292397
  9.5866248203005231 11.5574744235864326  8.2304840307008682
  7.4048959254776259  9.3595720516114156  0.7626711342740378
  9.5920600191018277 11.6125723810949992  5.1892964276321560
  7.3980134349175284  1.7825028145432056  0.6580418922332441
  6.5835024303239909  3.5122421254649510  3.0822898401582499
  3.1049919175456528  4.5879492840749085  5.0514812580784563
  4.7912878994431498  2.4788091883243939  4.7466586834631297
  4.4024484188046866  6.5657368273563774  3.3726139698784166
  5.7155383619700491  5.0644748331594807  5.1735097927158042
  4.0212871690136582  3.9858210050204708  2.6106778512226563
  7.1754684159077833  6.2239568696953604  3.3781814500356786
  5.7309426000359744  5.5746110448014949  1.1755456279764591
