 O Si Al Cu 
 1.0000000000000000
    18.2560000000000002    0.0000000000000000    0.0000000000000000
     0.0000000000000000   20.5339999999999989    0.0000000000000000
     0.0000000000000000    0.0000000000000000    7.5419999999999998
 O   Si  Al  Cu 
  97  46   2   2
Cartesian
  5.0533752651200006 20.4650371770199975  0.0223317111600000
 14.1600949761599999 10.2791963746399997  7.5020181987600001
 13.2809300131199990  0.0048355516600000  0.0481728657600000
  4.0060646919999998 10.2116816093399994  7.5396609995399997
  5.1760190731200009  0.1238460981800000  3.7854027311399996
 14.1747790071999997 10.3360326385799990  3.8043221398199996
 13.0741811782400017  0.1153563158800000  3.8096492806799995
  4.1070318732800004 10.3831936923999990  3.7981763148600001
  5.9210132071999997  1.7220641973599999  1.7839060169399998
 15.1124332732799989 11.8908804656800005  1.8621442360800000
 12.0906629110400008  1.5979371940599998  1.8301685695200001
  3.1432740830399997 11.9148348140600007  1.8533928009600000
  6.0126307606399996 18.9306902901799994  5.6163291962399997
 15.0095322339200017  8.5833779147199998  5.6251455679799998
 12.2852901270399997 18.9394921892799992  5.6984636880000004
  3.1461393622400000  8.6385646824400002  5.5623595492800000
  6.5127540632000001  2.0281741863400002  6.8009797958400000
 16.0107277859200003 12.0980732485000004  6.9473461076999996
 11.4274333846399987  1.7032920145599999  6.8441569916399994
  2.2527966070400001 12.1012459568399997  6.9407914309200001
  6.8824652646400004 18.7390078642599995  3.1475826543599998
 15.9914127553600007  8.4796315224400001  3.1646056271399998
 11.3223372438399998 18.7087456764200013  3.2908300475400001
  2.2468414998399999  8.6206653999800000  3.0741601530599998
 11.4113202739200013 18.7388754199599994  0.6174593919000000
  2.0672729280000000  8.4443670468600001  0.4067951166000000
  6.9999550387200005 18.7086039918199987  0.4755366756000000
 16.1677162416000009  8.6209489745199992  0.4682455225200000
 11.0662663563200017  1.8202787300399998  4.2164012570400002
  2.1690211009600002 12.1427225834399994  4.2609380491799991
  6.9904089763200004  2.0428808424799998  4.1663662714800003
 16.1017304772800003 12.1115312320999990  4.2686701829999993
  3.9424001780800002  2.2517071049999999  0.0249991657200000
 13.4796960468799991 12.7747186514599989  7.5271654893599997
 13.8627333980800014  2.5545686151800000  0.1241688483000000
  4.8185472417600002 12.6732568720199996  7.4988651148199992
  4.3146768951999999 18.1953611793000007  3.7277029618199999
 13.4428506923200004  7.8624564849399992  3.5733534429599998
 13.9137704193600005 18.1731306602200000  3.7520290040399997
  4.7515988385600005  7.8887644403999992  3.5530367279399999
 13.9309642852800000 18.0269739603599994  0.0048776376600000
  4.6069989044800002  7.6754139216599988  0.0172560960000000
  4.4878764963200002 17.9255830232199997  7.5382183657799997
 13.6728534723199999  7.7526794621999988  0.2666432619000000
 13.5561439596800000  2.7075931166799996  3.7270744869599999
  4.6763569171199997 12.9345374428799982  3.7632960732599998
  4.4281948939199998  2.6316805614000001  3.7731241288799997
 13.5823294532800016 12.8807510939599990  3.7918251966599996
  6.0351926208000002  6.1622014489799994  2.0721570334199999
 15.0927418039999992 16.6507959580399998  1.9427602969800000
 12.6041755291200008  5.9519031039999994  1.9082709572399998
  3.1905359460800002 16.6398531841000015  1.9128415600799997
  5.9610332801599997 14.2157214650799979  5.6900229832799996
 15.1574301143999985  3.6082416668999997  5.6106718666199997
 12.3080931489600012 14.2403926554000009  5.6786313956400001
  2.9831242358400001  3.8167137179199995  5.6370288185999993
  4.5638017398399997  4.7866287889799999  0.0058247620200000
 13.7085570966399999 15.4052675841199989  0.0528978533400000
 13.8850878700799996  5.1845142589200002  7.2871595155800000
  4.4983238574400000 15.2897426840999984  0.0603093767400000
  4.6764801451200002 15.5813792831800004  3.8250291533400000
 13.7100374756800001  5.3054890878799990  4.2414940943999992
 13.6326174308799999 15.5300317574399998  3.8090972062799997
  4.3554321372800002  5.2801396595399996  3.9405587160600000
  7.0920381201600007  6.1888744989599997  7.2630889963199996
 16.0670199793600013 16.5417275636399985  7.0785697428000001
 11.5119590297599999  6.3937418062799996  7.1048397355199997
  2.2505310374400000 16.5991956587599994  7.0266310810199997
  6.9144269566399998 14.2639059334599985  3.2719812319799999
 15.7735566049599996  4.0724209504999997  3.0941509782600001
 11.3766086806399986 14.2264890840000007  3.2449697852399999
  2.2277836963200000  3.9243307692000000  3.1206816224999998
 11.3695432435200008 14.2232841372800003  0.5751738113399999
  2.0095379628800001  4.0347461939999993  0.4779857892600000
  6.8734168607999999 14.1783676549999988  0.6090988586400000
 16.1149456305600012  3.9283398273599999  0.4839465335400000
 11.3437873136000000  6.3795234486599997  4.1977353349799991
  2.2756547620799998 16.6467575362600009  4.3635317997600005
  6.6462879403200006  6.4347301343599996  4.6384275934799994
 15.9741257838399999 16.6646473730800011  4.4184953314800000
 18.2384798993600015  7.9712445902399995  1.9287345149999997
  9.1502858294400014 18.2600907128400003  1.8916196542200001
  0.0072233515200000 12.5618619754199994  5.6781041344199998
  9.0043347687999997  1.9666535009799999  5.8850152842599996
  2.0174732984000001  6.2545202595799996  1.9073499281999999
 11.1328032692800001 16.4730462618000004  1.9006717888799998
 16.1741441791999989  6.2824750418399997  1.6927278375599999
  7.1565362030399999 16.4716949192599991  1.8636926841000001
  1.9886450662400001 14.3721406474600002  5.6495450692800002
 10.7359061454400013  3.9814812033400000  5.6884752140399995
 16.2946730296000020 14.3613155333399991  5.6323909411199997
  7.5323021894400002  4.1478224145199993  5.6338868968200000
 18.1752701424000023  4.5657137499799996  2.0493015303599997
  9.1367426158400011 14.6662626818999993  1.9006270648199999
  0.0121725531200000 16.1872762265199981  5.6587946535000002
  9.0994021585600002  6.2873071027199989  5.4278909686799999
  9.4212118067200006  7.3473697192199987  1.8844374076199999
  5.3605098276799996  1.5013263667800001  0.2723421479400000
 14.6999926259200002 11.7695916718599989  0.3022475355000000
 12.6638357719999988  1.4843028594200001  0.3180665034000000
  3.5489784489600003 11.7310417562799980  0.2982907006200000
  5.6003801582399992 19.1183145816800000  4.0634149546800007
 14.6710835196799998  8.8101129053399987  4.0530706491599995
 12.6505957905600006 19.1156443403199994  4.1338840842000000
  3.5413324710400000  8.8770013836399997  4.0155246876600001
 12.7211183534399996 19.0538137968999983  7.2522351532799991
  3.4705995990400003  8.7244119975999990  7.1564539404600005
  5.6358475499200003 19.0042315791400007  7.1868213509399999
 14.7533645896000003  8.7958298656200000  7.2161156856600002
 12.4524139488000003  1.5637468520200000  3.4069471320600000
  3.5270484289599997 11.8528892802399994  3.4197710209199998
  5.6272571891199998  1.6240484337999999  3.3753459258000000
 14.7404031947200007 11.8132403849799985  3.4326890339399996
 14.6841478784000010 16.6507663890800011  0.3811221486000000
 12.9067466393600014  6.3257221099199992  0.3487680244800000
  3.6213061651199996 16.6129663751800010  0.3567232506600000
  5.5379159763199999 14.2498530798799994  4.1329515913199995
 14.5481547355200007  3.9136824528199998  4.1426941960799999
 12.7427128281600002 14.2215225254199993  4.1245808763599996
  3.5019964504000001  3.9067540758799995  4.1159870690400000
 12.7308995531200004 14.1731167005199996  7.2353061538199999
  3.3958661072000003  3.7476929890599999  7.2067448260800004
  5.5288122568000002 14.1013060170800006  7.2430501285800002
 14.7361605003200005  3.8198318058199998  7.1614422192599996
 12.8039564139199999  6.3845762500399994  3.4458422065200001
  3.6241367579200001 16.7540795139599972  3.4651731821400000
  5.4172863527999997  6.4245302805400000  3.5732708580599999
 14.6420227060800006 16.7496470447199997  3.4918901891999998
  1.5837485283200001  7.8210930006800004  1.8245391452999999
 10.7514328734400006 18.0478229519200006  1.9248632063999997
 16.6367647286399993  7.8368709155999987  1.8165899527200000
  7.5520626664000003 18.0424405798399974  1.8479428763400001
  1.6023227304000001 12.7986001041400002  5.6338608769200000
 10.5672510103999997  2.3984151427599998  5.6590011534600002
 16.6666910591999979 12.7852817517399995  5.6339764203599998
  7.5068909328000002  2.5238719279000001  5.6313655308000001
  1.5284056468799998  4.7000806484000002  1.8780026486399999
 10.7413254390400006 14.9008100381599995  1.9102143043799997
 16.5743335900800020  4.7113320483600001  1.8332104843800001
  7.5329044548799997 14.8959042602200000  1.9089657262800002
  1.6175254144000000 15.9513863573399988  5.6762062655399994
 16.6650958499200001 15.9395150359199977  5.6953894179599995
  7.5868854387199995  5.7438468664800002  5.7695660438400003
  5.4000844542399999  6.2140890189200002  0.3815079973200000
 10.7800882212800015  5.6755142319600003  5.7402732175200004
  7.8596017819200004  6.5776026262599991  1.5859658498400000
  9.4982829793599990  6.7217213266200000  3.5496419228999998
