 O Si Au 
 1.0000000000000000
    18.1541673199999991    0.0003963400000000    0.0000389000000000
    -9.0767404299999992   15.7217942399999995    0.0000413600000000
     0.0000163600000000    0.0000295300000000    7.6305892899999996
 O   Si  Au 
  72  36   8
Cartesian
 15.4230654448404039  4.2980459194816190  0.3035594880623378
  6.2045706997612724 11.5089082307146420  0.2401291957069583
  4.5030674317305124  0.2011713514551950  7.6172707557849417
 11.2124509201731914 11.6170042925718775  3.9547768334224123
  2.1777827441118083  4.6651310821981316  3.8659709616635030
 12.7358645623407707  0.3417018710687523  4.1045458627461251
 12.7627298157628992  0.2011094288115028  0.0276917574082796
  2.2984411437169037  4.6431958336068986  0.3608736801221444
 11.1203748160628741 11.6969808685797751  0.1422993614940659
  4.6279570117447584  0.2343330830732734  4.1809091290650811
  6.0634642494644533 11.4069000915611038  3.9001860536995676
 15.1684980576858610  4.5095946095800201  3.9351526232635812
 -2.3717713142945547  6.9102568401211553  7.2102696992744573
  3.7817283778575765 10.8217944658193161  7.1326378433153135
 -2.5359965730031679 14.1805833636336356  7.3840214913812758
 10.8004477828046710  9.0438049558866140  3.4704230417541888
  4.6965368906756586  5.3742005009055482  3.2701707092835286
 10.7569428421018252  1.8682713743421624  3.6202613422848282
  1.6747357935478799 14.2042202526581374  7.4702824369280858
  1.6403262927542366  7.0934165749410898  7.3516174338010352
 -4.6708243632968953 10.9167192882469770  7.0386515288572786
  6.5084201764364948  1.8345963953929634  3.3636134149222991
  6.8976156212921014  8.9543770972917809  3.3298734530750589
 12.7426390636593094  5.5117114960331328  3.7058374425177734
 10.9097392717323221  9.1535780249136192  0.6792161749722554
  4.8700416648094462  5.4113474721891688  0.5827083518077074
 10.8630684691481409  1.5771438103088431  1.0787606714795566
 -2.3002152986420117  7.0714502586867942  4.4697475374545652
  3.4823367303639854 10.9025096288272305  4.4814007111306191
 -2.6117336602987273 14.0662774573610534  4.6156057027454924
  6.6266786409110141  1.7944556056126815  0.6580003678426719
  6.7468488312289256  8.8803267498108127  0.6258485397090444
 13.1362049002409034  5.4023619601707473  1.0556387438236441
  1.8312194997336477 14.0418992504776483  4.6579654329571625
  1.3545353082133396  7.0338080431501613  4.6542553175478698
 -4.2534999187335076 10.9607694055721847  4.3398322751025571
 -0.2847573889336686  5.3291332461057213  0.0473942101743670
  4.2729231829853447 13.3720551296745143  0.1086267635491886
 -5.0534318195610410 13.4243529710355354  0.2462174112677439
  8.7045703815995346 10.7687600602977582  3.9298861245521697
  4.0216362949331694  2.8385973271216143  4.0671666478449353
 13.2575714157677016  2.8664717243463915  4.2725682817356496
  8.7213525985864546 10.6010058416120927  0.1154512156910421
  4.1380211345333056  2.8205899564933130  0.1935076365091189
 13.1812274960637552  2.7928652665997080  0.2292433289046350
 -0.3956293112218604  5.1482906152199579  4.0599437637146201
  4.3934401940196297 13.4341711401514328  3.9764783537473147
 -5.1466371324087907 13.4509520977767139  3.8270453924429417
 -1.9061658720553776  6.1044471991807852  2.0678891554879937
  4.1927731277476630 11.6051579239667397  2.0347150218851784
 -3.4651902605078320 14.6416022296062405  2.1174557048738691
 10.5346752581211369 10.0443390586459564  5.7893203064724013
  3.9572090836115432  4.8103357633576920  5.8464445769180360
 11.4350090996536959  1.8341666175202713  6.0560779344003706
  3.0001029394716139 14.3716580009834729  2.1726880362602672
  1.1343671459739948  6.2303195210460558  2.1015510238814064
 -5.0832607249650641 11.5335275292889250  1.9837909029391678
  5.8168139380753736  1.9471629505245658  5.9444340170205567
  7.0313394522771198  9.8607693959974814  5.8104505773256339
 13.5429470174769868  4.9431464454719451  6.1107517765219725
  6.5818738890154025  4.0512138681659078  1.8980347766428276
 11.7897466801966111  3.6478927550881117  2.1834825157775022
  8.9358407956076800  8.1045360906449346  1.8589916116017140
  1.4833742753093371 11.9066959970375219  6.1897229071318547
 -2.3053054523585752 11.7480636771861668  6.0896381577686194
 -0.4393178850953399  8.3420155164729035  6.0752077788042236
  8.7242674823712925  2.2884523570969111  2.1393059069056815
 11.5757017747225017  7.0466854376447179  2.1172915998177380
  6.7025602710142875  6.6548067684105510  2.0261231730924529
 -0.4277880741608702 13.6534094146723763  6.0183119339299109
 -2.9136833426472206  9.2064084881078649  5.9447670008914475
  1.9625011697844117  9.3370441307254008  5.9898107162957670
 -1.8250808025882157  5.6923651485522573  0.5180189814948408
  4.5900950711353801 11.8247531275941355  0.4849647166917018
 -3.9302316984901409 14.5515847498843822  0.5682231421207412
 10.2753447624066947 10.3558799582400294  4.2536563912478389
  3.7362006555965621  4.4382709850185815  4.2352354947144990
 12.0234307474467723  1.7724285161337316  4.5548094257058906
  3.1446009268604138 14.4743343386855461  0.5690246398445234
  1.1939252150284985  5.7957843849469652  0.5824501525598361
 -5.4399830716823123 11.8780416129424538  0.4896431115533809
  5.2389820040733017  1.7065947236424597  4.4388812519331386
  7.1775617774305687 10.2699376693996705  4.2445266702763131
 13.6233192729658725  4.4291106558422495  4.5449771509391192
 10.2935960095398347 10.3034948709525391  7.3911125014344794
  3.7936870181544649  4.3984936882272612  7.3977805048713048
 12.0046097534982135  1.6278168307330201  7.5826751105066839
 -1.8802770699632891  5.6916221176460544  3.6707820961631228
  4.4705161506247917 11.8431655399355353  3.5752768118790077
 -3.9047190721837404 14.5153367151480914  3.7458507202089852
  5.2627670332144154  1.6411619664254589  7.4262282946954716
  7.1505067189839480 10.2524923392675369  7.4311734123827424
 13.8006657635707466  4.2888903820125845  0.0329122514910213
  3.1745174174572064 14.4898321815980928  3.8247808866610598
  1.0577896374752251  5.7896090169100862  3.6851095552307771
 -5.3966990813336038 11.9008389221321398  3.5635206568384197
  7.1344314706379190  2.5100430176050330  2.0146621071617821
 11.9003908678632726  5.3597563457673836  2.1880129399127042
  7.3136572633916757  8.1133447135223928  1.9668727223939648
  1.1774918050709375 13.5005434909014905  6.0906288086868887
 -3.5612509624438533 10.7091217437984483  5.8284329431271482
  1.1245971732283557  7.9292028871130222  5.9973357830149494
 10.5410360280720479  8.2776743543694593  2.0608844022924662
 10.3641196885938935  2.7439129802728561  2.2337483472257293
  5.7023050626402911  5.3812702865111666  2.0037851082451898
 -1.9810022930903572  7.8134865615509490  5.8995833504526791
 -2.0352304818374720 13.4182696262069605  6.0422894540901178
  2.6673906994233660 10.7661846994861978  5.9900224066556413
  7.5580362839646327  4.4412192224393348  4.6254921761051655
 10.3249657389677854  4.7307466601644572  0.3584630871595270
  8.3903701424850325  3.2375555723162592  6.8724329158158568
 10.1974545886955870  7.1331089125320117  6.8448886403337523
 10.2515637192640661  4.6070046060332697  5.3861097009258430
  7.9202611694834149  5.8196348152369382  7.1246708718134686
  9.5169215451625018  4.9843664323680947  2.7586743465367323
  8.8149266118586631  6.9229444265760307  4.4558325158800987
