 O Si Au 
 1.0000000000000000
     8.9848655900000001   -0.0000010900000000   -0.0000004000000000
    -0.0000010900000000    8.9848744800000002   -0.0000018100000000
    -0.0000004000000000   -0.0000018100000000    8.9848666399999999
 O   Si  Au 
  24  12   8
Cartesian
  1.2330606814309304  4.4391573590658506  7.8533116760448838
  5.8770324346207268  8.8183079260119470  3.1966001218423319
  7.6584371701064669  1.1635311050645161  4.6906296483240864
  3.1602625805510192  5.6568076680400141  8.9559145920033600
  4.3641830695500001  7.9072838430566401  1.1821221118871790
  8.9005589740017292  3.0087416861485354  6.0384206737963391
  1.4010872135397585  4.3627507924343085  1.5213424648017928
  5.7368752548097550  8.6838243979882765  5.9239479779709416
  4.2656109596249658  7.4350121354607097  7.5841653938299531
  8.8098947807077899  3.1274520331074744  3.2732022471743121
  7.5520084660526754  4.5806988700940510  7.6258225394225736
  3.1987655368664405  0.1749099408947063  3.2189893049475939
  1.2778150943228550  1.3355274921022604  4.4542194577641716
  5.8893423487086300  6.0587002018179739  0.1922764603565393
  7.6561101155718854  4.4232086723739741  1.2863765905851714
  2.9358655692823907  0.0460113396063616  5.9278871910136415
  4.4523291792378217  1.0415143707223999  7.8727092863737056
  0.0008541622245536  5.7246952357659850  3.2141897815876028
  1.3495722364633431  7.6520570933325756  4.2329717711087449
  5.8137139189855764  3.1337737489618425  8.8532598259211888
  4.9131098970710552  1.4064816607295729  1.4428929784998501
  0.1585145184862102  5.8478000320891939  5.9133750471754096
  7.7492185715570425  7.6180587223505380  4.6671158465098497
  3.0326969904101961  2.9298580036403319  0.1496678355265275
  2.2013097721308750  4.3698456086943258  0.1475404152772759
  6.7144542804410632  8.8182974783957633  4.6012416634393380
  8.9078437062611275  2.1820724180750610  4.6379893000894263
  4.3884211951080534  6.7241174258600473  0.0767143861347844
  4.5885189007982641  0.0905954462657016  2.2989929151743751
  8.9736404075911853  4.4230016492682376  6.7946645710080622
  4.3240565628859136  8.8749385178325273  6.7773118574646958
  8.9181072220721802  4.4054268888277930  2.3012988974097510
  6.6369130958712086  4.5591592793732545  0.0069035662520743
  2.1675724715395690  0.0536574926743501  4.4829870629983475
  4.4935812388140111  2.2198486274686990  0.0438158519042627
  0.0626868460175928  6.6663736909600262  4.5309751653338193
  4.4837221251591304  3.6144681683420061  2.7617514768433731
  4.5585645366145133  4.2680850590294233  6.8439020476567212
  4.6410017271306083  2.2055569778964577  5.0531517805712260
  4.3253915511093464  6.3550096730369647  5.1918540288330792
  6.3746056090318310  4.2102873270992909  4.9132078685834113
  2.5329286757387393  4.0860534920892269  4.8754063946193664
  5.8440599233600654  6.1484942773604407  3.1002289815627031
  3.1121723159019452  5.8929308521252732  2.9196268660997124
