Sr Cu Bi  H  C  O 
 1.0000000000000000
     8.9253210000000003    0.0000000000000000    0.0000000000000000
     0.0000000000000000   20.2735689999999984    2.3409900000000001
     0.0000000000000000    0.0000000000000000   32.7738609999999966
 Sr  Cu  Bi  H   C   O  
  18  20  20  10   4   1
Selective dynamics
Cartesian
  4.4626605000000001  8.1094276000000001 16.2308753912869967   F   F   F
  4.4626605000000001  4.0547138000000000 13.8898806521639973   F   F   F
  4.4626605000000001  0.0000000000000000 16.2308613739179997   F   F   F
  4.4626605000000001 16.2188552000000001 16.2308566347949998   F   F   F
  4.4626605000000001 12.1641413999999983 13.8898618956719986   F   F   F
  0.0000000000000000  8.1094276000000001 16.2308753912869967   F   F   F
  0.0000000000000000  4.0547138000000000 13.8898806521639973   F   F   F
  0.0000000000000000  0.0000000000000000 16.2308613739179997   F   F   F
  0.0000000000000000 16.2188552000000001 16.2308566347949998   F   F   F
  0.0000000000000000 12.1641413999999983 13.8898618956719986   F   F   F
  4.4626605000000001  8.1094276000000001 20.9128508521639951   T   T   T
  4.4626605000000001  4.0547138000000000 18.5718561130410009   F   F   F
  4.4626605000000001 16.2188552000000001 20.9128320956719982   T   T   T
  4.4626605000000001 12.1641413999999983 18.5718701304099980   F   F   F
  0.0000000000000000  8.1094276000000001 20.9128508521639951   T   T   T
  0.0000000000000000  4.0547138000000000 18.5718561130410009   F   F   F
  0.0000000000000000 16.2188552000000001 20.9128320956719982   T   T   T
  0.0000000000000000 12.1641413999999983 18.5718701304099980   F   F   F
  2.2313302500000001  6.7578495754769996 13.8898736196699986   F   F   F
  2.2313302500000001  2.7031357754770000 16.2308543414239956   F   F   F
  2.2313302500000001 18.9219909754769979 16.2308496023009994   F   F   F
  2.2313302500000001 14.8672771754769997 13.8898876370389992   F   F   F
  2.2313302500000001 10.8125633754769979 16.2308683587929998   F   F   F
  6.6939907500000002  9.4610056245229988 13.8898689281659991   F   F   F
  6.6939907500000002  5.4062918245229996 16.2308496499199997   F   F   F
  6.6939907500000002  1.3515780245230000 13.8898876846579977   F   F   F
  6.6939907500000002 17.5704332245229971 13.8898829455349997   F   F   F
  6.6939907500000002 13.5157194245229988 16.2308636672890003   F   F   F
  2.2313302500000001  6.7578495754769996 18.5718490805470005   F   F   F
  2.2313302500000001  2.7031357754770000 20.9128298023009975   T   T   T
  2.2313302500000001 18.9219909754769979 20.9128578370389988   T   T   T
  2.2313302500000001 14.8672771754769997 18.5718630979159975   F   F   F
  2.2313302500000001 10.8125633754769979 20.9128438196699946   T   T   T
  6.6939907500000002  9.4610056245229988 18.5718443890429938   F   F   F
  6.6939907500000002  5.4062918245229996 20.9128578846580027   T   T   T
  6.6939907500000002  1.3515780245230000 18.5718631455349978   T   T   T
  6.6939907500000002 17.5704332245229971 18.5718584064120016   F   F   F
  6.6939907500000002 13.5157194245229988 20.9128391281659987   T   T   T
  6.6939907500000002  6.7578495754769996 13.8898736196699986   F   F   F
  6.6939907500000002  2.7031357754770000 16.2308543414239956   F   F   F
  6.6939907500000002 18.9219909754769979 16.2308496023009994   F   F   F
  6.6939907500000002 14.8672771754769997 13.8898876370389992   F   F   F
  6.6939907500000002 10.8125633754769979 16.2308683587929998   F   F   F
  2.2313302500000001  9.4610056245229988 13.8898689281659991   F   F   F
  2.2313302500000001  5.4062918245229996 16.2308496499199997   F   F   F
  2.2313302500000001  1.3515780245230000 13.8898876846579977   F   F   F
  2.2313302500000001 17.5704332245229971 13.8898829455349997   F   F   F
  2.2313302500000001 13.5157194245229988 16.2308636672890003   F   F   F
  6.6939907500000002  6.7578495754769996 18.5718490805470005   F   F   F
  6.6939907500000002  2.7031357754770000 20.9128298023009975   T   T   T
  6.6939907500000002 18.9219909754769979 20.9128578370389988   T   T   T
  6.6939907500000002 14.8672771754769997 18.5718630979159975   F   F   F
  6.6939907500000002 10.8125633754769979 20.9128438196699946   T   T   T
  2.2313302500000001  9.4610056245229988 18.5718443890429938   F   F   F
  2.2313302500000001  5.4062918245229996 20.9128578846580027   T   T   T
  2.2313302500000001  1.3515780245230000 18.5718631455349978   T   T   T
  2.2313302500000001 17.5704332245229971 18.5718584064120016   F   F   F
  2.2313302500000001 13.5157194245229988 20.9128391281659987   T   T   T
  5.3547641845920007 21.0819572903059971 24.2565477912220011   T   T   T
  6.5225621095530002 19.5780233947479978 25.8921366936859982   T   T   T
  6.3976611674789998 18.2361564097759974 24.7465357511189978   T   T   T
  3.8363618001090001 18.4494140820869994 24.7113811024649976   T   T   T
  3.9589600093650001 19.7692031504180008 25.8996934089629995   T   T   T
  3.1111616182170003 20.0100936972759982 24.3567562159960005   T   T   T
  7.9221595462050001 20.8290039698929945 24.2058068323149982   T   T   T
  7.8258642579360007 19.4319523301029982 23.1146292271229967   T   T   T
  8.6379613650840010 19.2789882519979976 24.6781086076569984   T   T   T
  4.4626605000000001 20.1015072198969982 22.4029448331490002   T   T   T
  5.2680636163980008 19.9923543244009991 24.1782533821219943   T   T   T
  6.4841653786110003 19.3268541484069978 24.8258742417869982   T   T   T
  3.9730620165450001 19.5296709326830005 24.8321855503049989   T   T   T
  7.7907609704430003 19.7432124349600002 24.1632499776319953   T   T   T
  5.2316572320389998 19.6535221657040005 22.7946463164489970   T   T   T
