Zr  H  C  O 
 1.0000000000000000
    10.9603059999999992    0.0000000000000000    0.0000000000000000
     0.0000000000000000   11.6360440000000001    0.0000000000000000
     0.0000000000000000    0.0000000000000000   30.2313280000000013
 Zr  H   C   O  
  48  36  30   1
Selective dynamics
Cartesian
  1.2788704246919997  2.9090110000000000 10.9168650854080003   F   F   F
  1.2788704246919997  8.7270330000000005 10.9168650854080003   F   F   F
  6.7590234246919989  2.9090110000000000 10.9168650854080003   F   F   F
  6.7590234246919989  8.7270330000000005 10.9168650854080003   F   F   F
  1.2788704246919997  0.0000000000000000 12.5963967437760012   F   F   F
  1.2788704246919997  5.8180220000000000 12.5963967437760012   F   F   F
  6.7590234246919989  0.0000000000000000 12.5963967437760012   F   F   F
  6.7590234246919989  5.8180220000000000 12.5963967437760012   F   F   F
  4.2002961477679994  1.9393445453480000 12.5963967437760012   F   F   F
  4.2002961477679994  7.7573665453479999 12.5963967437760012   F   F   F
  9.6804491477679999  1.9393445453480000 12.5963967437760012   F   F   F
  9.6804491477679999  7.7573665453479999 12.5963967437760012   F   F   F
  4.2002961477679994  4.8483555453480003 10.9168650854080003   F   F   F
  4.2002961477679994 10.6663775453480003 10.9168650854080003   F   F   F
  9.6804491477679999  4.8483555453480003 10.9168650854080003   F   F   F
  9.6804491477679999 10.6663775453480003 10.9168650854080003   F   F   F
  1.2788704246919997  2.9090110000000000 14.2758981708159993   F   F   F
  1.2788704246919997  8.7270330000000005 14.2758981708159993   F   F   F
  6.7590234246919989  2.9090110000000000 14.2758981708159993   F   F   F
  6.7590234246919989  8.7270330000000005 14.2758981708159993   F   F   F
  1.2788704246919997  0.0000000000000000 15.9554298291840002   F   F   F
  1.2788704246919997  5.8180220000000000 15.9554298291840002   F   F   F
  6.7590234246919989  0.0000000000000000 15.9554298291840002   F   F   F
  6.7590234246919989  5.8180220000000000 15.9554298291840002   F   F   F
  4.2002961477679994  1.9393445453480000 15.9554298291840002   F   F   F
  4.2002961477679994  7.7573665453479999 15.9554298291840002   F   F   F
  9.6804491477679999  1.9393445453480000 15.9554298291840002   F   F   F
  9.6804491477679999  7.7573665453479999 15.9554298291840002   F   F   F
  4.2002961477679994  4.8483555453480003 14.2758981708159993   F   F   F
  4.2002961477679994 10.6663775453480003 14.2758981708159993   F   F   F
  9.6804491477679999  4.8483555453480003 14.2758981708159993   F   F   F
  9.6804491477679999 10.6663775453480003 14.2758981708159993   F   F   F
  1.2788704246919997  2.9090110000000000 17.6349312562240002   T   T   T
  1.2788704246919997  8.7270330000000005 17.6349312562240002   T   T   T
  6.7590234246919989  2.9090110000000000 17.6349312562240002   T   T   T
  6.7590234246919989  8.7270330000000005 17.6349312562240002   T   T   T
  1.2788704246919997  0.0000000000000000 19.3144629145920028   T   T   T
  1.2788704246919997  5.8180220000000000 19.3144629145920028   T   T   T
  6.7590234246919989  0.0000000000000000 19.3144629145920028   T   T   T
  6.7590234246919989  5.8180220000000000 19.3144629145920028   T   T   T
  4.2002961477679994  1.9393445453480000 19.3144629145920028   T   T   T
  4.2002961477679994  7.7573665453479999 19.3144629145920028   T   T   T
  9.6804491477679999  1.9393445453480000 19.3144629145920028   T   T   T
  9.6804491477679999  7.7573665453479999 19.3144629145920028   T   T   T
  4.2002961477679994  4.8483555453480003 17.6349312562240002   T   T   T
  4.2002961477679994 10.6663775453480003 17.6349312562240002   T   T   T
  9.6804491477679999  4.8483555453480003 17.6349312562240002   T   T   T
  9.6804491477679999 10.6663775453480003 17.6349312562240002   T   T   T
  3.3523520740779995  2.9090110000000000 10.9168650854080003   F   F   F
  3.3523520740779995  8.7270330000000005 10.9168650854080003   F   F   F
  8.8325050740780000  2.9090110000000000 10.9168650854080003   F   F   F
  8.8325050740780000  8.7270330000000005 10.9168650854080003   F   F   F
  3.3523520740779995  0.0000000000000000 12.5963967437760012   F   F   F
  3.3523520740779995  5.8180220000000000 12.5963967437760012   F   F   F
  8.8325050740780000  0.0000000000000000 12.5963967437760012   F   F   F
  8.8325050740780000  5.8180220000000000 12.5963967437760012   F   F   F
  3.3523520740779995  2.9090110000000000 14.2758981708159993   F   F   F
  3.3523520740779995  8.7270330000000005 14.2758981708159993   F   F   F
  8.8325050740780000  2.9090110000000000 14.2758981708159993   F   F   F
  8.8325050740780000  8.7270330000000005 14.2758981708159993   F   F   F
  3.3523520740779995  0.0000000000000000 15.9554298291840002   F   F   F
  3.3523520740779995  5.8180220000000000 15.9554298291840002   F   F   F
  8.8325050740780000  0.0000000000000000 15.9554298291840002   F   F   F
  8.8325050740780000  5.8180220000000000 15.9554298291840002   F   F   F
  3.3523520740779995  2.9090110000000000 17.6349312562240002   T   T   T
  3.3523520740779995  8.7270330000000005 17.6349312562240002   T   T   T
  8.8325050740780000  2.9090110000000000 17.6349312562240002   T   T   T
  8.8325050740780000  8.7270330000000005 17.6349312562240002   T   T   T
  3.3523520740779995  0.0000000000000000 19.3144629145920028   T   T   T
  3.3523520740779995  5.8180220000000000 19.3144629145920028   T   T   T
  8.8325050740780000  0.0000000000000000 19.3144629145920028   T   T   T
  8.8325050740780000  5.8180220000000000 19.3144629145920028   T   T   T
 11.1144079023599982  4.2080473161159997 21.7293111639040006   T   T   T
  8.4359064014679994  5.5502417194279996 22.3381096471680003   T   T   T
  9.9425100642279993  6.3523491404799994 21.9568926010880041   T   T   T
  9.9428059924899994  2.0518418187399998 21.9590994880320025   T   T   T
  8.4359064014679994  2.8549499395760001 22.3378073338880014   T   T   T
  9.4675123227999993  6.3493470411279995 24.4178133942719988   T   T   T
 10.9852078152320001  5.5411423330199998 24.0326058128960014   T   T   T
 10.9852078152320001  2.8640493259839999 24.0323034996159990   T   T   T
  9.4676109655539999  2.0557515295240001 24.4175110809920000   T   T   T
  9.7481071167059987  4.2025434673040003 25.6728065135359991   T   T   T
  8.3084051617699988  4.2026481917000007 24.6567920421120022   T   T   T
  9.9086098377699994  3.3938500453480001 19.9747151181120017   T   T   T
  0.0244086014620000  3.8786774546519998 12.5963967437760012   F   F   F
  0.0244086014620000  9.6966994546520002 12.5963967437760012   F   F   F
  5.5045616014619991  3.8786774546519998 12.5963967437760012   F   F   F
  5.5045616014619991  9.6966994546520002 12.5963967437760012   F   F   F
  0.0244086014620000  0.9696664546520001 10.9168650854080003   F   F   F
  0.0244086014620000  6.7876884546519998 10.9168650854080003   F   F   F
  5.5045616014619991  0.9696664546520001 10.9168650854080003   F   F   F
  5.5045616014619991  6.7876884546519998 10.9168650854080003   F   F   F
  0.0244086014620000  3.8786774546519998 15.9554298291840002   F   F   F
  0.0244086014620000  9.6966994546520002 15.9554298291840002   F   F   F
  5.5045616014619991  3.8786774546519998 15.9554298291840002   F   F   F
  5.5045616014619991  9.6966994546520002 15.9554298291840002   F   F   F
  0.0244086014620000  0.9696664546520001 14.2758981708159993   F   F   F
  0.0244086014620000  6.7876884546519998 14.2758981708159993   F   F   F
  5.5045616014619991  0.9696664546520001 14.2758981708159993   F   F   F
  5.5045616014619991  6.7876884546519998 14.2758981708159993   F   F   F
  0.0244086014620000  3.8786774546519998 19.3144629145920028   T   T   T
  0.0244086014620000  9.6966994546520002 19.3144629145920028   T   T   T
  5.5045616014619991  3.8786774546519998 19.3144629145920028   T   T   T
  5.5045616014619991  9.6966994546520002 19.3144629145920028   T   T   T
  0.0244086014620000  0.9696664546520001 17.6349312562240002   T   T   T
  0.0244086014620000  6.7876884546519998 17.6349312562240002   T   T   T
  5.5045616014619991  0.9696664546520001 17.6349312562240002   T   T   T
  5.5045616014619991  6.7876884546519998 17.6349312562240002   T   T   T
 10.0177087236939997  4.2026481917000007 21.7470871847680023   T   T   T
  9.5247141598139997  5.4666483793320007 22.4505097246719991   T   T   T
  9.5247141598139997  2.9387410924199999 22.4502074113920003   T   T   T
  9.8956109148539984  5.4665436549360003 23.9297890663680022   T   T   T
  9.8956109148539984  2.9385432796719999 23.9296076784000000   T   T   T
  9.4051153007419988  4.2025434673040003 24.6320930471360029   T   T   T
  9.5708132068499996  4.2027412800519999 20.3955049725440034   T   T   T
