 O Si Au 
 1.0000000000000000
    13.7065166200000004   -0.0000588000000000    0.0000243500000000
    -6.8533092299999998   11.8701637400000006   -0.0000225700000000
     0.0000263400000000   -0.0000129700000000   14.8090446000000000
 O   Si  Au 
  72  36   8
Cartesian
 11.1554309569085177  1.1564616710686675  1.9382067182693952
  4.5299077479473233  5.0850723309197470  6.9963832939303039
 -2.2997719818271514  8.8971735270667196 11.7669593735552471
  6.4187164152937486  9.6325054268491161  1.8758003758474513
  6.4340261384287087  1.8286807764311472  6.3789665462435856
 -0.4400118456574871  5.8500725516869290 11.8516681939958399
  1.5155767192017029  1.0893678430497669  2.0255627185562131
  8.4273359906762693  5.0433800402082065  6.7300672099469381
  1.4329757804437619  8.8848577360369259 11.4326426522031053
 -5.2843818531346107 10.7342986819185153 13.0892468716824055
  8.5468453379973557  2.7467176596254750  3.0991147217963402
  1.4201508264232279  6.9190411032432726  8.2484170572745565
 -0.2926111586430437  1.9961014306049287 13.2982178264726087
  6.3096431724698840  6.1289501116219487  3.2871872426899484
 -0.3842253734479636 10.0845769161795964  8.1878400139560572
  4.6756030137997202 10.7135315271731653 13.3642790566581020
  4.4174437938102340  2.8205378364018632  3.3469092858193075
 -2.2881833876049491  6.9670586780145767  8.3496674178243975
 10.8509239081060045  3.8067493675240178  2.4011770925487239
  3.8921131974861312  7.6199201592674921  7.4230267388963078
 -2.8456736746688067 11.4532882888754948 12.5056806240718430
  4.2476462160031412  7.9368523452776003  2.6153725017306075
  4.5712622871255535  0.0756596887753991  7.5091842438618883
 -2.0829598808854408  3.7989525897943310 12.3528956239906247
  4.0455183174988285  0.3091557835850453  2.5083217214186280
 10.8498705933746660  4.3385448349363269  7.5158009414697116
  3.9407096710424727  8.2223028037761026 12.4313243396071815
  8.7438060501576640  0.2067816585329214  2.4374673983729163
  2.0613979325733180  4.3145448237549351  7.6271923111799218
 -4.7179503154002926  8.1898968405234704 12.5819443659869279
  1.9509417458857432  3.6909269942639527  2.6387905705899075
  8.9350056790847585  7.5408999475622416  7.5416532523493363
  2.2055184654170588 11.2084987858021972 12.4669378002719800
  8.2758344780461055  7.8354592447591909  2.6220649936972884
  1.5346283304582677 11.8448352188629880  7.3317270145872904
  1.4267561288675987  3.9653109981374697 12.4883726320437525
 -0.4316943385800985  2.8858247553238821  2.0334581631945277
  6.4161458999065726  6.9429175416379341  7.0665311675721441
 -0.3420849676895655 10.6930986462398057 12.0413321502695876
  3.7936791075224279 10.3410464835310645  2.0871487398209996
  3.8715464815725609  2.5309446971827532  6.9290049851913587
 -2.9834363400520321  6.3164339161332297 11.9212801415337175
 -4.8641509317288296 10.5043529180249191  2.3729144564005891
  9.1232740942804735  2.4901001630969164  6.8152203192571292
  2.2448482402958621  6.3533401678590842 11.9434828239837252
  6.5370590331140930  8.7419544712348145 13.2936810814542277
  6.4237653491634150  1.2082238869244826  3.0204638309609333
 -0.3696412732467355  5.1868897873136826  7.8711266980870684
  2.1608711868513391  1.4269299530883630 13.0265753434043177
  8.8129104261222952  5.3549046466526606  3.1547642634001560
  2.1739831243379255  9.4666239609664302  8.1862956294905391
 10.7914726767313507  1.4210783137082839 12.9246210792261493
  3.8896378294506850  5.3783462233118762  2.9191954286336004
 -2.9625659327206790  9.4899141656044304  8.0784256960938787
 11.5035068657745772  3.0139613297887808  0.0694600726220516
  4.5271812137523098  6.8291944585431414  5.0188804259949382
 -2.0765744389350718 10.9319416128873463 10.0139254864307876
  4.5237861019447116  8.5704407242262697  0.1593917592427323
  4.4879665901234249  0.8194479397416597  5.0090159833181032
 -2.0280216258495725  4.8544700033939279  9.8899984433035968
 -3.7467399436936315 11.6778866916327431  0.2146039365909285
 10.0500066797146790  3.9782261684101412  4.9583114501521051
  3.3073210146503498  7.6897778737150730  9.9311978329181620
  2.8341622958937003 11.8321005796244823  0.0209933062341491
  2.8631141980473886  4.1008319250848118  5.0926097974616038
 -4.0256557153379937  8.0462749674954175 10.0195200002886899
  1.4901571759262058  3.0804331837353569  0.1312502906360174
  8.2151830655521980  6.9849315392820674  5.1514719215571665
  1.4000115475826798 11.0673037305058077  9.9579763095594860
  8.4967593610666103  8.9370189676185419  0.2079912662585675
  8.3390885146214835  0.8973513439301815  4.9060570985965697
  1.1698310663954279  4.8375728355680732  9.9840704500077511
 11.7016171137556437  2.6328783015488022  1.6309821029170064
  4.8616023883330222  6.6704995470821604  6.6327342612357540
 -1.8902415016546008 10.4890434750211252 11.5881895480904600
  4.8250707030430879  9.1313869424487724  1.6745679466194432
  4.8764281099891926  1.3488486408469964  6.5512800209407756
 -1.9079364908886163  5.1677969767587237 11.5390647268432147
  2.6699242845633417  0.0083946041382663  1.7791901584395826
  9.6415985039124017  4.0098363661965228  6.5178970917818599
  2.6849800679398772  7.7994766818019521 11.4750380498889424
  3.2407990621167011 11.8364651836545605  1.6037124435158767
  3.3274696457432493  4.0476628330377853  6.6475092607511987
 -3.5033517644731393  7.8169278102942785 11.5481277430250113
  1.1369321044287484  2.6656681736916421  1.6836054609021203
  7.9781275216825343  6.6182767798659494  6.6739171325106774
  1.1928017856769124 10.5098105651030700 11.4707683168427454
  8.0336721274314531  9.2709057791215095  1.8065739436373880
  8.0292281894956776  1.3214901033545430  6.4398718721411132
  1.0598450697682131  5.2694570138053800 11.5803523433301585
  8.0813735208798487  9.1803832363033475 13.4413263576961004
  8.0107865916302607  1.2675265811152221  3.4041528021347691
  1.0918026675690382  5.3533568982554289  8.4484556057942637
  1.1770122051445280  2.6817970972015424 13.3886823666590651
  7.8837427480616178  6.5998844984723455  3.5930021732245030
  1.1536383187198762 10.6717872484994416  8.3696841194129892
  3.4005042245922574 11.8134981014672622 13.3294020090244594
  3.2827344024471148  3.9964454487336432  3.4896624683505904
 -3.5481502601164410  8.0109323644766874  8.4826244585451089
 -4.0933153842304781 11.8197145047544048 13.4260618376017238
  9.5966576891975528  3.9472710778588551  3.4245468080857453
  2.6398334152810934  7.9694167506830489  8.4606264340054089
  4.9624953756773511  9.0746035407917685 13.4734883757969843
  4.8624491783208184  1.3018201960383158  3.5491446079521363
 -1.9239222218503444  5.3916515326785923  8.4037799164406906
 11.8477281894576034  2.5533768805596511 13.3949153110107240
  4.7382359671844894  6.6448074452204695  3.4728975635595742
 -1.8749647600091683 10.6586396624741848  8.4174943418368642
  6.3895001551924144  3.9763604385140319  8.7725617199394108
  7.3599462304092009  1.8608614232510650 12.0081114090778467
  6.4399108986617959  1.3932035437251733  9.4539485020508796
  7.3053979606971220  4.6126226102699270 11.8055925518680720
  8.6581273370964809  2.9072265454906043  9.8959987287659317
  5.1136008090073100  3.3091627607678853 10.9331250070991004
  8.3456414023924275  5.6223289077939738  9.5247794001479793
  5.7965163307225609  6.2012967686581355 10.0378226079354747
