 O Si Au 
 1.0000000000000000
    11.9587094399999998   -0.0000003700000000    0.0000010700000000
    -0.0000003700000000   11.9587162199999995   -0.0000031600000000
     0.0000010700000000   -0.0000031600000000   11.9587174399999991
 O   Si  Au 
  48  24   8
Cartesian
 10.5807590464513819  1.9087874766224175  6.3459256379356530
  4.8889104807179038 11.5892402258814489  2.9507532425490348
  1.4708350261043626  5.3342901283222677  0.1618939336702885
  4.8472372508584334 11.0734044981860471  9.7623851852569334
  8.3212539312263587  5.3359304907112515  0.4977427377593056
  1.4538227910829755 11.0439183558972278  6.3676873085300985
 10.5929265033542901  5.3161139457372668  2.9372959554256384
  4.8653949793201043  1.9074314622036617  0.6136088432758388
 11.0726481732649518  5.3356243600330968  9.7819280105135462
  4.8667079601364795  8.7256589816269265  0.1417343127421915
 11.0994142983440742  8.7479533896944783  6.3592332940827676
  8.2804800781502674 11.5565278474291802  6.3504501729459593
  0.3390074921875830  0.7882059919152231  4.6282352925478758
  2.7797615175210590  0.6138908720075492  1.6577600736509470
  0.3147101759522671  3.5835818177980641  1.8143641721997830
  0.3156261944449483  0.7860957879002336  8.0787593382290357
  3.0932197359246847  0.7449735397293619 10.9609914088186517
  0.1084191666717419  3.2608878906652570 11.1243742643681927
  9.6711851802011140  0.5215553803592866  4.2569164060773081
  6.9772964609806367  0.5061018062665953  1.5033091333263979
  9.6640272794176560  3.2243056863856880  1.5252850844376813
  9.6350771437454021  0.5575482921005868  8.4431184710428226
  6.5846374789815307  0.8185072129346487 10.8593311620836666
  9.4195752622912128  3.5368685108618392 10.8707841509389631
  0.0863156112266691 10.1086435441477231  4.2701755312313914
  0.2445115163684765  7.0818683667519098  1.7683200413947762
  3.1609765351695587  9.9234364399417618  1.8070943773429846
 12.0358918438623430 10.1122741285637474  8.4561169815239374
  0.1863919845209984  7.4180701174109540 11.0735498942974413
  2.7802301826393765 10.0615024936044470 11.1248656697271304
  9.4036729273727317  9.8704752738788404  8.0898262961497238
  6.9204539656426292 10.1548944445839471 11.1609999623453469
  9.5006835972059562  7.1598737913877812 10.9559131168576602
  9.3991491700467265  9.8514229021176778  4.6166052474050030
  6.6122125330874804  9.8594070247396335  1.8312848159006181
  9.5541725135901938  7.4177967634366739  1.6600311810160657
 10.8281910695092609  2.8780792241253459  3.9079453543918108
  2.4562146980680657 11.2957118961385152  3.9563261867437518
  2.4437345684296634  2.9118742735152616  0.3816884319991561
 10.8699382569985641  2.9067493195891068  8.7674532087019426
  2.4157340495185582 11.3094950900874309  8.8082619766470476
  7.3200476857865100 11.3291692846060510  3.9077460312143066
  7.3004551774390753  2.8998261410610500  0.3143382919565875
  7.2880091440670753 11.2959704087171762  8.7808776871090934
 10.8511355770439568  7.7440318859108652  3.9458575059418495
  2.4416735859084255  7.7629420717438178  0.4610292585536765
 10.8607930052806623  7.7563142582658413  8.7750639089741114
  7.3203145762451198  7.7933490190004031  0.2819703652839090
 10.8460799064653752  1.5208343888383220  4.7896523853794362
  3.3162232568717194 11.3431082916168311  2.5862368950216421
  1.0710946465007336  3.7737852651019073  0.3819534310806918
 10.8353527363917426  1.5333811352676909  7.9096248794298676
  3.2856994436163305 11.2888078106691889 10.1724114498531293
  6.4415120878172756 11.3210364360701021  2.5537808960202137
  8.6708132995923677  3.7572208273984025  0.3453722059132729
  6.4094337758440698 11.3245971373541714 10.1421207010945693
  1.0731629644618443 11.2996062845222340  4.8064083910325817
 10.8243716183991872  3.7490303561363283  2.5479580733489797
  3.2919585746216198  1.5375307777264187  0.4122328342653929
  1.0582580825255383 11.3031706023707876  7.9261076381930122
 10.8589669516326364  3.7626079046368162 10.1435326009207589
 10.8026717146948794  6.8899017124925939  2.5735553805384521
  3.3078365488391261  9.1250897992721374  0.3945239514999595
 10.8954221898594632  6.9091362479776715 10.1540413874788449
 10.8480744147624364  9.1302921664101664  7.9209857865017996
  8.6792356584669452  6.9122374564842257  0.3790869174647769
 10.8506543117880074  9.1234728149647317  4.7981066710484344
  1.0775649192573928  6.8963918292867206  0.3789054698890354
  8.6608337742376307 11.3132539982391229  7.9175264065390820
  6.4173104206440872  9.1387406839971277  0.3737664905133465
  8.6792166804738855 11.3060834298624755  4.7939744252770904
  6.4254874893397966  1.5439944700281645  0.3519781352918932
  7.8508628739739708  4.7410453802785728  3.3450759771201839
  3.9844350811387361  3.4770422315813327  4.2010991451502742
  6.4411878534076834  2.4321637984075615  3.2971077089542780
  4.7655561783189127  6.0238777401070944  4.5223997434746339
  6.3185750930283895  4.0090377000484292  5.4454285697366975
  5.3822178052536040  4.6977914100463183  2.2411171606615046
  7.3029782402894368  6.4884610062654451  5.3624205003476577
  6.5112233045374621  7.0664793627993241  2.7654165679841873
