 O Al Si Cu 
 1.0000000000000000
    18.2560000000000002    0.0000000000000000    0.0000000000000000
     0.0000000000000000   20.5339999999999989    0.0000000000000000
     0.0000000000000000    0.0000000000000000    7.5419999999999998
 O   Al  Si  Cu 
  97   2  46   2
Cartesian
  5.2543447980800000 20.4467159208599973  7.5038158344599992
 14.1074404732800005 10.2290788354999993  7.4634228433800001
 13.0137368401600000  0.1015145518200000  7.4888126846999992
  4.1312475444799999 10.2504625324199985  7.5398668207199995
  4.9863972872000000 20.5120247185400011  3.7763420740200004
 14.3427634168000004 10.3151579795200004  3.9983234974199999
 13.2430254454400007  0.0663221505800000  3.7487130128999997
  3.9365166344000002 10.2812616843600004  3.7902394157400003
  5.9883645203200002  1.8100443790999998  2.1002061085200001
 15.1228886670399998 11.7199809118399987  1.8504450102599999
 12.0271532080000014  1.5800892466000001  1.9225970616599999
  3.0906228662399999 11.8770241224799982  1.8226686538800001
  5.9229463350399998 18.7241599341999994  5.5616487911999997
 15.0482486459199993  8.4329318675999989  5.7249799270199997
 12.2627196865600006 18.9424525760599991  5.5924353106200000
  3.1111924491200003  8.6176068606800005  5.6952439327799995
  6.8778755236800002  2.2933326030999996  7.2911174063399997
 15.9453492161600003 12.0514820131800011  6.8985069816599998
 11.4686510512000002  2.2618116810600002  7.0132195949399998
  2.3368174737600000 12.0705342797399986  6.8642782180199990
  6.8612101689600005 18.8396283657199994  3.0814441412400000
 16.2401655427199998  8.5706363623799984  3.3354580978799997
 11.4208915295999986 18.7682877055400006  3.1116256414199999
  1.9574132491200000  8.6021560523799998  3.3148703988000001
 11.2635359457600011 18.6948371768599984  0.4535718827400000
  2.3230033411199997  8.4213422726600005  0.6628390025400001
  6.9734119100799994 18.4645982644799993  0.4121991104400000
 15.9365699057600008  8.4608579022599990  0.6641863808399999
 11.2066847535999994  1.6001862830800000  4.4217364305600002
  2.0515156267200001 12.1218004908400001  4.2143450815800003
  6.8211466467199999  1.6439701099199999  4.6594978297199994
 16.1882732278399999 12.1928317036399996  4.2121619742599998
  4.0180011950400001  2.5143334742199999  0.0134046228600000
 13.4872383307200003 12.7929132128399985  0.0407221239600000
 13.9558599924800006  2.5320144802600000  0.3801985552800000
  4.8315497126400002 12.7713874206399982  0.0320519161800000
  4.3448876542399999 18.0179309920999984  3.5332036059600003
 13.7118325881600001  7.8291897622200004  3.4885885278599997
 13.9374431571199988 18.0809307414799996  3.7410201728999999
  4.4525157196800000  7.7238753936999993  3.5711468800200001
 13.8408933801600007 18.1207958597599976  0.0128564703000000
  4.8184223707199996  7.7370319381799995  7.4991876107400000
  4.3694071052800005 18.0055477580600005  0.0478865714400000
 13.4320780092800014  7.7125217344200001  0.1881455979600000
 13.5550752534400001  2.7142034219599998  3.7549544704200000
  4.6151129662400008 12.7770445376400001  3.7906885418399994
  4.3399348014400001  2.4728667039399999  4.0590792097200001
 13.6230151399999997 12.8076436884199989  3.7469378523599999
  5.9889501728000001  6.3870263669199998  1.8992510269199998
 15.0591916574399995 16.6406067819000008  1.8204386353199999
 12.7080225943999992  5.8977331799599995  2.0054959351199999
  3.1788090219199998 16.4048518210999994  1.8008407483200000
  6.0085310107200005 14.0851552047199995  5.5889267722199998
 15.1116508211199996  3.4561064929399996  5.7279366172800001
 12.3293438632000019 14.1399220521399993  5.6070390360599998
  3.1003706574400001  4.1593920914799991  5.6329006294799999
  4.5723910052800001  5.0924812815999996  0.0455647667400000
 13.6637809705600013 15.4525955793599987  7.4757445104600002
 13.8073229694399995  5.1259609418999998  7.2902475874799997
  4.5309966206399999 15.3844058614799994  7.3159578129599998
  4.6002246505600004 15.4104501603799999  3.7894666624200002
 13.9167227796800006  5.2961960154999996  4.2580051916399997
 13.6691312564800018 15.4577017691399998  3.7496700927000002
  4.5646385948800008  5.0387173147399995  3.5963818086599999
  6.9435140588800000  6.1631704484399998  7.0678942680599999
 15.9576386076799999 16.6775667498599987  6.8907750741000005
 11.3553057542399998  6.1198149608400003  7.2844297641000004
  2.2305261126400002 16.6405078080200006  6.9069221944199999
  6.8193031558400001 14.0662138217599981  3.1010176675799999
 15.9110178953600006  3.8622170619200000  3.2310489878999999
 11.4265877667200009 14.1672682066399993  3.1363238813400001
  2.2768289880000001  3.8252462109399996  3.1125467458800000
 11.3425528428800000 14.2681665331199987  0.4737923618400000
  2.0548838587200002  4.2589739832199998  0.4708534707000000
  6.9071466464000002 14.3727624169799988  0.4688485054200000
 16.1055949073600004  4.0665903211999996  0.5710851423000000
 11.5694431574400003  6.5473574816399998  4.3311675693599998
  2.2344316187200000 16.5739394547799996  4.2413293771200005
  6.6109384823999999  6.4791527739399992  4.4501420160000000
 16.0417217273599988 16.5593660642999971  4.2322332726000003
 18.2304328371199986  7.9249055124399996  1.6990639471800000
  9.1279242376000003 18.2753464481399988  1.9032366722400000
 18.2506161230400004 12.5716357487399986  5.8170707638199994
  9.0882470123200001  2.2135652000000001  5.8882398663599993
  2.0073335508799999  6.2576640149799996  2.1558908817000000
 11.0947511931200005 16.4662831835599981  1.8923713653600001
 16.1844307049600005  6.2376692378199996  2.1068011350000000
  7.1907395492799999 16.4417834521399975  2.1091604988599997
  1.9695916441600001 14.3552990713399993  5.6310140735999994
 10.7898617534400003  4.0833193710000000  5.1827390883000000
 16.2570831953599999 14.3645980985799984  5.6858434331399996
  7.2297004091200003  4.1032484393599997  5.3912120354999997
 18.2155936300800008  4.5274642468200001  2.0977422879600001
  9.1322865088000000 14.6221790586599987  1.8881824631399997
 18.2437600822399979 16.1698447085800012  5.6283886279799997
  9.0397380819200013  5.9677311218800000  5.3694196527600004
  8.6686684515200003  3.8968180839600000  2.3885314891200000
  5.3719680235200009  1.5434699376999998  0.4147937847000000
 10.8044079516800000  5.8128004491600000  5.6923877773799996
 14.6640967659200001 11.7072607148599985  0.2931790347000000
 12.6278827707200012  1.6082255494200000  0.4144068801000000
  3.5971379595199999 11.7577819524399985  0.2886451614000000
  5.5374595763199999 18.9967530963399973  4.0125949977599999
 14.8381109497599990  8.7763075757999989  4.1528114119800001
 12.7110706161600007 19.0860505341800000  4.0436680377599998
  3.3648214140800001  8.7999204437599996  4.1090482781999995
 12.6037538155199993 19.0928086842599996  7.1661236895000000
  3.5828486232000003  8.7529920401600005  7.2410575321799993
  5.6249081896000002 18.9355239937799986  7.1543166130799998
 14.6286447092799996  8.6977514733599985  7.2749601797399999
 12.5326813819199998  1.5025906451600000  3.4644045015000002
  3.4181052012799999 11.7708337735199997  3.4021855657800000
  5.5421321995200001  1.4868503074599999  3.6509735197800000
 14.8179008275200008 11.7614879287599994  3.4408451035799996
  5.5382292492800005  6.3455255101999999  0.3464434292400000
 14.6161793299200014 16.7158632758800003  0.2668112976600000
 12.8125774447999987  6.2261788220999996  0.4214787118200000
  3.5924879737600004 16.6095306262999998  0.2489189585400000
  5.5026442889600000 14.0979893654000001  4.0550916034799993
 14.6222817630400002  3.8457395536200001  4.2266324325599998
 12.7727269700800008 14.1466849250399989  4.0511645594999992
  3.5549523598399997  3.8864328081199999  4.1099929891200002
 12.7291314595199996 14.1640881060599995  7.1733939512399996
  3.4477073052799998  3.9690197347599998  7.2126478740600000
  5.5560739415999993 14.1534482086199986  7.1369157106799994
 14.7358724206399998  3.8078075060999996  7.2706666699799998
 12.9530272424000010  6.3937703485399995  3.5315152538399999
  3.5958014377600001 16.5960436897599983  3.3511198905000001
  5.3762791779200008  6.4140813493000000  3.3958082768400000
 14.6618713595199992 16.6773782477399983  3.3859232791200000
  1.5598218496000000  7.8029682548999997  1.9535571224999999
 10.7236550915200013 18.0423260001199992  1.8408561868800000
 16.6382392657599993  7.7931236392799992  1.9597166739000000
  7.5330273177600002 18.0052557645799993  1.8619050038400000
  1.5832134449599999 12.7833903650000007  5.6237468286599999
 10.6678072491200009  2.5250555076599999  5.6376530699399998
 16.6581729921600008 12.7926657781399999  5.6482006323600000
  7.5089012835200002  2.5597460579400000  5.8084398498600001
  1.5593178014400000  4.7095683830999997  1.9488141095400000
 10.7353533537599990 14.8819261503999982  1.8496042281000000
 16.6045160523200011  4.6714872587400000  1.9989807784200000
  7.5276080241600001 14.8725326667599980  1.8831970503000000
  1.5928814574400001 15.9328133543400003  5.5938665559600000
 16.6380826292799995 15.9401337253399991  5.6108717296199995
  7.4500114438400002  5.7129684532999994  5.5994620411799998
  7.5333398604799999  2.9123029282199999  1.5009598170000000
  9.3506695273599991  4.5158662329399997  3.8817595493999999
