 O Si Au 
 1.0000000000000000
    11.9587094399999998   -0.0000003700000000    0.0000010700000000
    -0.0000003700000000   11.9587162199999995   -0.0000031600000000
     0.0000010700000000   -0.0000031600000000   11.9587174399999991
 O   Si  Au 
  48  24   8
Cartesian
 11.5459888893103049  2.0351297344752326  6.7044830386124739
  5.6713101646056510 11.4849108239327684  3.2857743744386676
  2.2399976056551014  5.4515374466629360  0.9736923249786860
  5.6714324097356901 11.6240899017463288 10.1803606170447516
  9.1318449686290890  5.5151976752466032  0.5248738887699205
  2.2526268339182662 11.3865625248676707  6.7279379699919843
 11.8675733811991204  5.4522431118155712  3.2676172616933656
  5.6408500725260868  1.9048242532174888  0.5581262644925860
 11.3353680898787115  5.5259851411967569 10.1468471864847523
  5.6962631590499946  8.8432406214651422  0.8345736147422677
 11.7284890658287253  8.9084288025509828  6.7537076781341572
  9.1405465917572712 11.5762244290919121  6.7165878692846519
  1.1260905719072563  0.9092963934795834  4.8201768349464320
  3.6886810995123271  0.9301463876780994  2.1640018478168397
  0.8969171108906427  3.3517783935725256  1.9315264118985245
  1.1039873164148122  0.9470688438700773  8.6123332730457207
  3.5684123297598274  0.6352665244584760 11.5045441091696237
  1.0441304335403525  3.7797911555505879 11.2545888235478397
 10.4283485684355739  0.7255327973968404  4.6619422302714844
  7.6143600198735841  0.9385064906772517  2.1236756830365944
 10.2081193838735143  3.6780631030284958  2.1483301472184722
 10.3972253977902476  0.7789556114799153  8.7600106062351060
  7.7564177757091590  0.7817095091195464 11.4373293143819783
 10.3749810813864229  3.4090877963657418 11.4588413517332679
  0.9365039551717190 10.2011237559944696  4.7294249310767533
  0.8965456368428257  7.5485782162108732  1.9667951727202653
  3.7247935080812939 10.2360435165984995  1.9564576737828390
  0.9369933006431298 10.2456613504901224  8.7491087315608169
  1.1453449377810998  7.2100666092170300 11.2881735925426767
  3.8581487471280749  9.9670401844966321 11.2495509422205853
 10.2343009971287877 10.0766401516040176  8.6379500495629689
  7.5390900269429961 10.0864297297407912 11.3063014610447983
 10.4880923652993960  7.6162651993308899 11.5697913073355263
 10.2375805301047471 10.0234503828146178  4.8324078913188906
  7.6490209927527326 10.2280964228403821  2.0212491513812898
 10.2089813747810254  7.2667934151657638  2.2489850821947188
 11.6480519300051739  3.0503418985757316  4.2826853930230584
  3.2612400030078823 11.3903815055358884  4.3052028550508243
  3.1602984725149752  2.9856139379290449  0.5432746991414249
 11.5991720811255821  3.1104180699743571  9.1113595171008139
  3.2662581797906336 11.4531372850771636  9.1353954812946547
  8.0902136709121830 11.4805126023358532  4.3126214588699590
  8.0375431832617164  3.1106556989870757  0.6673831588582052
  8.0688537999593919 11.5028012226161085  9.1183306772263766
 11.7047974691488044  7.8620786417371749  4.3449885091680649
  3.2476076490039136  7.8866979930708609  0.7989407986157218
 11.6669521334777748  7.9412918468889870  9.1980690997517218
  8.1295702340125384  7.9358257215021890  0.7595047291138360
 11.6746426057410826  1.6686808606759478  5.1275863508946689
  4.0883383175605950 11.4975925085746820  2.9221638788714599
  1.8339219089652297  3.9045983577332311  0.7126204499081730
 11.6531859830431976  1.7096247825505659  8.2949976082617702
  4.0970144966161852 11.4108097528622299 10.5237190475239046
  7.2561441968501565 11.5287276782206956  2.9304735959390911
  9.4363096156525614  3.9280991012596678  0.7321236609528222
  7.2546129422016543 11.4917485926187091 10.5183162555896530
  1.8800188053678852 11.4606701599428096  5.1509763593042726
 11.6485011216275893  3.8868858812065326  2.9001714068264821
  4.0469161236773923  1.6414349700710806  0.7379139321111879
  1.8775437090694482 11.5004648763532522  8.3048891953687694
 11.5760041944674743  3.9541367561405409 10.4965056058185926
 11.6656036020438467  7.0329251488885172  2.9559037752692796
  4.1226735676848110  9.2443185327637849  0.7280505126088558
 11.6529222136490009  7.0684148295783649 10.5580033434236356
 11.6348508465819798  9.3035046126253320  8.3277167808776191
  9.5086972340495226  7.0725727173358139  0.7944425878344074
 11.6403721671152045  9.2576436833718656  5.1697550875073786
  1.8794253023775460  7.0220350381254208  0.7759925772393299
  9.4697915901061904 11.4766749645786348  8.3042315998969745
  7.2487591550053638  9.3052467586374554  0.7440183503521527
  9.4854779608960875 11.4409601682100170  5.1368734779792034
  7.2440870669075386  1.6982311387364137  0.7312382178466658
  7.2412785473427785  4.1187150349473702  3.3297677869529547
  3.0357396317864653  4.3142434477498286  4.1658223242766574
  5.2292475768699047  2.4096928374724635  4.1265587073709176
  4.4324208707555091  6.5507408935476272  3.4084270867932500
  5.4453523902702043  4.8227471284905059  5.2218116891701918
  4.8226716097038498  4.1916762214600674  2.1829327804127221
  7.0387090960282483  6.6942657803294088  4.2596648677084072
  6.4718692167243645  6.1294895315913660  1.6092596381191293
