 O Si Au 
 1.0000000000000000
    11.9587094399999998   -0.0000003700000000    0.0000010700000000
    -0.0000003700000000   11.9587162199999995   -0.0000031600000000
     0.0000010700000000   -0.0000031600000000   11.9587174399999991
 O   Si  Au 
  48  24   8
Cartesian
 11.1557062051329670  2.0521347269839922  6.8048909664646056
  5.2038167918045941 11.6249712455024028  3.1850945142469831
  2.0187082546138697  5.3525728618175377  0.6346998016206713
  5.2117533359897408 11.0127274321508484  9.9587697059398383
  8.8139044283566506  5.2902996787197312  0.6011022898380169
  1.8439945068493881 11.0008372529883314  6.6810473568321802
 11.1631805748901360  5.2779477157247623  3.2086422433786481
  5.2334625429308117  1.8238886711892037  1.0300819314961709
 11.2809720964597044  5.2957578931523708 10.2036934680477707
  5.3126686288210250  8.6669221888500463  0.3394249736102962
 11.0147327616913060  8.8886672463642196  6.5962481546786078
  8.6733347108918277 11.0345114669208311  6.6968889544557477
  0.5492299915634742  0.6863792139815308  5.0400465368111300
  3.1514782344427306  0.3230679041398931  1.6054934107322893
  0.7872768525257323  3.4636405185194947  2.2109452519324018
  0.7403491275073408  0.7016007993928832  8.4374055234746876
  3.5214512841190850  0.7824976162213294 11.0981708722457153
  0.6168700226291809  3.3968775790854515 11.5005639015939956
  9.7252455523473511  0.7744361354310203  4.9054070049976692
  7.3236210807897981  0.5918293252747557  1.8823385000993189
 10.0109237049662934  3.2826574669821120  1.8841539607568143
  9.9747313693572934  0.4345299013668716  8.7061088754294556
  6.8790769848573268  0.6456354650085339 11.2540890864023613
  9.8751221568089704  3.3519942554394735 11.2819856962070126
  0.6733412287896757  9.9283128113568040  4.7119061074639932
  0.7586893188983465  7.2240279895005814  2.1798915324929586
  3.6671718662520196  9.7709243643271666  2.1819119038030470
  0.5155979499800731 10.0106689417134085  8.6545010019844728
  0.6445953248138026  7.1645459006702250 11.3667644726399679
  3.2244732285796074 10.1269472352098440 11.5488542884788092
  9.8124346684886934  9.8044246200015017  8.9109453426194474
  7.3805722391626940  9.9601554821977327 11.3266164108429876
  9.9483259586981898  7.3717293118922402 11.3029962267016728
  9.9144979086499649 10.0542590187514751  4.5431609072640411
  6.8804180031239452  9.9265510774578924  2.0833769823777653
 10.0213776555145451  7.3014430981167537  1.9989378119961956
 11.1769845608333860  2.8157686793415997  4.2261899519629171
  2.7456956562862751 11.5859139200426515  4.0719277962592342
  2.7968087026427173  2.8609079271562856  0.6925071759417240
 11.3154748863167676  2.7114735745198768  9.3070358584815160
  2.8117493354428040 11.2213181077610837  9.1438410815001028
  7.6507449957423219 11.3045562344391133  4.2000224371209569
  7.6231801016260405  2.8625703264514688  0.5112603291217374
  7.5292277190055614 11.1891898363295450  8.9851396450939998
 11.1303404266560051  7.6813120354636704  4.2914073214732156
  2.8753099390141017  7.8271054295453215  0.6538106899034718
 11.4317330902378593  7.6652894593898484  8.9668668093126911
  7.8058160156920522  7.7881771082672593  0.7904384118121170
 11.1384676009289478  1.5330224592287760  5.2334095566540952
  3.7048259012656048 11.3224675406494839  2.7783446367550626
  1.4882199652340544  3.7845911734160942  0.7784907106967168
 11.2018662594737890  1.4776366410380311  8.3209676907672172
  3.6908755632860810 11.2683313823767524 10.4987393183177495
  6.7861787326418419 11.3428288178345298  2.8391351337887896
  9.0205979806035970  3.6727562862057268  0.6608875930916499
  6.7712048370964721 11.1934921133010032 10.3966860716406586
  1.4901714193670277 11.3545458959611860  5.0895100800125324
 11.2368507899473205  3.6643969667281269  2.8808877157172486
  3.6743490002195229  1.5138799215622059  0.6063359626207050
  1.4643036980683353 11.2348066329173371  8.2074202851164362
 11.2661127631256921  3.7341712939199545 10.5652787361560243
 11.3012116316017153  6.8262102523162307  2.9075287558779279
  3.8290379079736705  9.1192626157680667  0.6913306705887555
 11.2780356102527044  6.9146128217779141 10.4829123500344696
 11.2028936286755343  9.1078424480384417  8.2469381044150598
  9.1418644629359100  6.8506578621102285  0.7179099949233928
 11.1741567946641371  9.1659571728839460  4.9766956153894082
  1.5742540491602093  6.8946240742839615  0.7291681994926831
  8.9861928661697341 11.1202044485707674  8.2810333519673005
  6.8393802734503630  9.0931250859392332  0.6465628901718580
  8.9795306194322162 11.2871156002874997  5.1100898072568155
  6.8312032633251585  1.5318273294885583  0.6673296456570396
  6.4814419440095561  6.9049132134564921  3.4008019591484211
  6.4268782403695708  2.4996042553505959  3.8929606665509096
  8.3401629353024411  5.0122578123439503  3.5234985881621208
  3.9367924022136389  3.7250812803795861  3.5563839309746679
  6.1176168406422855  4.7973140173484223  5.0741685943383841
  6.1167104569466471  4.5393772949166280  1.9418575599212957
  3.9360709651262860  6.1995762483138028  4.7680527259561032
  4.0923267043428639  6.1493550919101034  2.2208900661551234
