 V  P  H  C  O 
 1.0000000000000000
     7.0479000000000003    0.0000000000000000    0.0000000000000000
     0.0000000000000000   15.3070000000000004    0.0000000000000000
     0.0000000000000000    0.0000000000000000   17.5369999999999990
 V   P   H   C   O  
   8   8  28  16  52
Cartesian
  5.2539480228391069  3.1903943489321880 12.8815066472527313
  1.6430583777619661  2.9435540685368142  4.3419957076947480
  4.1605945678342229 -0.7491338699674451  8.7000678020726721
  5.5254779259614768 10.8044524695290640 13.3187745861132942
 -0.4525770287304099  6.9626811980630858 -0.0106176429783261
  3.0630147316656862  6.9695017763472418 -0.0488668394187873
  1.9608890097242047 10.3604048951927545  4.5717503260641870
  7.6842813624141781 -0.8335608366023939  8.7796680311489492
  1.2924276072338658  9.0216245555952970  1.8392356855293281
  4.8342302148414324  4.8931815405649308 15.6635872846371988
  2.4206379406768077 12.1698381183179194  7.2718771744612063
  1.2952443619802898  4.8437816469889272  1.7172838201385714
  5.8585417863038565 12.5943559945620738 10.6426335183830396
  4.8472750244608180  9.1256650157847634 15.8452333729764980
  2.3684555914486958  1.1250119292571208  6.8056711656114404
  5.9362592350777472  1.4939929488697998 10.2986036907282354
  4.8849991734456157  3.5437566380400956  9.7344659384787668
  6.9869909939329782 10.7440509640361608  9.6063309060242776
  4.5464067434381867  2.9089530273394564  4.1219416822013883
  1.3095949999564558  6.6134461296832976 15.7181804779835907
  1.2126994016809898  3.0692092987983628  7.4466661666660068
  4.0364431817428681  1.7372155483609268  3.2079649065329763
  4.8194183925431195  6.9947267893028879  1.7749622556600602
  2.6444010810386263 10.5265269538989834  9.0824704159620495
  5.9834890969893708 -1.0057434859237024  6.9578933808184686
  4.6102316081749155  3.2065307913878263 -0.1273019708473037
  6.1893013183875514 11.0028399072425671 16.2972760981453959
  1.0312485108931515  3.1190913834613707 13.2863444774633912
  3.0535846178938360  9.6777694426938634 12.3330417316548377
 -0.1893538661290187  3.0900750880232848  1.1183151963730675
  5.4411008635366525 11.1047194546345853  8.7996928452432037
  1.0384969311502430  3.3296206149582015 17.3656321320860911
  5.4525164976488334 10.4467856735720446  5.2242756434052433
  4.9552246059110701 10.8230508736125675  0.0587762283137867
  2.5776003424850589 10.9914892410749605  1.3945571245214241
  1.1646144903145377 10.8778565130227456 17.8405949264230337
  6.2353345890513534  3.2366119608320010  8.6216517132768544
  3.3401224795212774  3.0951591634663100 16.1547873849285430
  3.6685893858889096 10.2354081196572988  7.6471503504471006
  0.5427472399174368  2.0806716668394984 14.3665821474133324
  2.5766118203820145 10.9881410105641280 13.0131756298613404
  6.3242676916519027  9.5892043538564611  6.1936570226123697
  2.5320268192682365  2.7334320138055306  8.6113749837478295
  2.4300994641908389 -1.0252938045678923 10.4818013044502454
  6.8174849479565278  4.0908440532760997 10.5352206178581760
  5.3285096436216426  9.8368629859239718 10.5551355434468821
  4.2306803577516039 11.7634748215868665 15.7642324565032439
  3.0997693958272023  3.8091293641266235  6.7868935222135915
  1.6970318242106761  2.1619875997116922  1.5457576758726967
  2.2654985096764362  2.7683322879406731  7.5439830239001360
  2.6715279231023028 10.5293938636697995  7.9929808157532767
  0.8759113092910256  3.2685704804899354  0.9088907485862590
  1.6544372147787119  9.5540769608521927  7.4349166103357414
  5.9293550434614080 10.9929442430338291  9.7804775734435818
  1.5027993653120986 10.7548681242969444  1.3363288420930177
  5.1347124956322903 10.7750048170010650 16.5154535668611935
  4.4135763647627240  3.2504517292647903 16.3301895274981135
  5.9299097403276679  3.1911737938537423  9.6724269066654482
  5.2144947350364186  2.1884493232176641 15.5960540527058864
  0.7085982796923440 11.6663556136967319  2.2632952881054740
  4.6060156828818259 13.3511610136109802 10.1441799944988187
  5.0379831492559193  4.7114875173189485 14.1461766787809200
  1.3029798735899589  6.9101686917235439 16.6478536627298084
  0.2104162418281593  2.9867004684417569  5.0871048105802510
  7.1849092779805277  0.7436719838826037  9.7583234262146608
  3.5447464695682855  8.5399706626201493 16.4511349925768471
  3.4623226274171537 10.1791756209470936  4.0022745869775669
  5.7959476276888111  9.7602812706718520 11.8249840938004507
  6.2287895915716858 10.4882689731975152  5.8255792397915354
  3.2117644898672402 10.6372771772758270 12.3594535689036036
  6.1307527613583934  1.5457663485817219 16.0859934267675797
  1.2953712741324792  1.9593458956161396  2.8250931936784553
  7.8069805214788941  4.6423862285443294 10.0792822784897531
  4.0001120537713231  4.4275829626896135  7.3321722853673510
  5.7725839540697068 12.3658101086459435 12.1574062250576223
  0.3686370900120273  2.9631648063150973 13.9812576734585630
  1.5081165410849169  4.5533607190283441  3.2058418861597588
  6.1141006870741110  5.4239924417578278 16.3735187446536052
  2.3170449398583646  1.3388742387679737  5.2780908521496963
  1.1512338172096264  9.0215488814493003  3.3871756611341128
  6.4310658978635695  4.2163046769940067 11.8205094434851077
  3.6954704372837734  0.4515933787823746  7.2339845690128488
 -0.1924193242337005 12.3835776007104563  1.8818309898023780
  5.9438973420938481  1.6122823954218377 11.8311588427191765
  4.5082444717630894 11.9099479974786142 14.4596066054975960
  2.3168495574123882 11.9196872163769694  5.7653089113584892
  2.5991108021812286  1.5541183372923826  1.0062734543735781
  0.7932871531884247  9.0232540702350175  8.1039868027631723
  3.3186176353343417 12.3450132377611830 16.3192847471376368
  4.6798260131213958  0.7366620377530655  9.7687742150812902
  3.6482387316040987 13.0450795686254875  7.6216774123123177
  2.3965733568451335 -0.7398406862598892  9.5462146488618522
  3.8969009941778685  2.6785511687570329  3.4242825716450986
  0.0086744364365798  8.4882463608834371  1.1630419091063100
  5.9332288124579415 14.3795727150024497  7.9332594411561601
  2.5116719941957468  8.1911209154593116  1.3865874885244125
  6.9682225460603480 10.7648364941933039 14.0410181748830354
  1.7786645854150731  9.3471761880679676  6.1079983382454195
  4.7308260541346794  9.2838893835644178 14.3192307946710944
  3.6327703591855109  5.8312601674421209 15.9752367273116853
  6.0454433531790590  8.2088194442998859 16.2115393048772098
  0.1002059244061050  5.7922251770755757  1.4728668620845420
  3.8520127260816812  3.2911958115167153 12.0915749931050787
  2.7654521815239281  3.9688981690820304  5.4970880008561878
  1.1517315994916897 12.8599885653965185  7.8497438501244288
  1.1720061784511924  0.2636632209696377  7.2974770018338528
  4.8238223557211590  6.9112270774630060  0.8021604069076698
  4.8197087558183958  2.0848047545639683 14.3115767546513819
  7.1446339660753360 13.3847611486258735 10.2801199266768091
  1.0585440855613231 11.6145304956500208  3.5563543069806931
  2.5902413993273261  5.4244203162387779  1.0649286591581357
  4.5477601495494184  9.0339893750103233 10.0915460640660886
