Ir Rh  C  O 
 1.0000000000000000
     9.0960920000000005    0.0000000000000000    0.0000000000000000
    -0.0772310000000000    9.0957640000000008    0.0000000000000000
     0.0000000000000000    0.0000000000000000   34.9022739999999985
 Ir  Rh  C   O  
  16  12   1  56
Cartesian
  0.0000000000000000  0.0000000000000000 13.4849821917359982
  9.0574764999999999  4.5478820000000004 13.4849821917359982
  4.5480460000000003  0.0000000000000000 13.4849821917359982
  4.5094305000000006  4.5478820000000004 13.4849821917359982
  0.0000000000000000  0.0000000000000000 16.6579130188019988
  9.0574764999999999  4.5478820000000004 16.6579130188019988
  4.5480460000000003  0.0000000000000000 16.6579130188019988
  4.5094305000000006  4.5478820000000004 16.6579130188019988
  0.0000000000000000  0.0000000000000000 19.8308438458679994
  9.0574764999999999  4.5478820000000004 19.8308438458679994
  4.5480460000000003  0.0000000000000000 19.8308438458679994
  4.5094305000000006  4.5478820000000004 19.8308438458679994
  0.0000000000000000  0.0000000000000000 23.0037746729340000
  9.0574764999999999  4.5478820000000004 23.0037746729340000
  4.5480460000000003  0.0000000000000000 23.0037746729340000
  4.5094305000000006  4.5478820000000004 23.0037746729340000
  2.2547152500000003  2.2739410000000002 15.0714301541319990
  2.2160997500000001  6.8218230000000002 15.0714301541319990
  6.8027612500000005  2.2739410000000002 15.0714301541319990
  6.7641457500000008  6.8218230000000002 15.0714301541319990
  2.2547152500000003  2.2739410000000002 18.2443609811979996
  2.2160997500000001  6.8218230000000002 18.2443609811979996
  6.8027612500000005  2.2739410000000002 18.2443609811979996
  6.7641457500000008  6.8218230000000002 18.2443609811979996
  2.2547152500000003  2.2739410000000002 21.4172918082639967
  2.2160997500000001  6.8218230000000002 21.4172918082639967
  6.8027612500000005  2.2739410000000002 21.4172918082639967
  6.7641457500000008  6.8218230000000002 21.4172918082639967
  5.3788505339710007  3.6858127753720002 24.5902226353299973
  1.3727338534580000  1.3844298553840002 13.4849821917359982
  1.3341182762270001  5.9323209511480002 13.4849821917359982
  5.9207798534580007  1.3844298553840002 13.4849821917359982
  5.8821642762270008  5.9323209511480002 13.4849821917359982
  3.1366966465420001  3.1634521446160004 13.4849821917359982
  3.0980811465420000  7.7113341446160009 13.4849821917359982
  7.6847426465420003  3.1634521446160004 13.4849821917359982
  7.6461362426340012  7.7113341446160009 13.4849821917359982
  3.6786259660290002  0.8620692246280001 15.0714301541319990
  3.6400104660290000  5.4099512246280002 15.0714301541319990
  8.2266719660290004  0.8620692246280001 15.0714301541319990
  8.1880564660290016  5.4099512246280002 15.0714301541319990
  0.8308045339710000  3.6858127753720002 15.0714301541319990
  0.7921890339710000  8.2336947753720011 15.0714301541319990
  5.3788505339710007  3.6858127753720002 15.0714301541319990
  5.3402350339710001  8.2336947753720011 15.0714301541319990
  1.3727338534580000  1.3844298553840002 16.6579130188019988
  1.3341182762270001  5.9323209511480002 16.6579130188019988
  5.9207798534580007  1.3844298553840002 16.6579130188019988
  5.8821642762270008  5.9323209511480002 16.6579130188019988
  3.1366966465420001  3.1634521446160004 16.6579130188019988
  3.0980811465420000  7.7113341446160009 16.6579130188019988
  7.6847426465420003  3.1634521446160004 16.6579130188019988
  7.6461362426340012  7.7113341446160009 16.6579130188019988
  3.6786259660290002  0.8620692246280001 18.2443609811979996
  3.6400104660290000  5.4099512246280002 18.2443609811979996
  8.2266719660290004  0.8620692246280001 18.2443609811979996
  8.1880564660290016  5.4099512246280002 18.2443609811979996
  0.8308045339710000  3.6858127753720002 18.2443609811979996
  0.7921890339710000  8.2336947753720011 18.2443609811979996
  5.3788505339710007  3.6858127753720002 18.2443609811979996
  5.3402350339710001  8.2336947753720011 18.2443609811979996
  1.3727338534580000  1.3844298553840002 19.8308438458679994
  1.3341182762270001  5.9323209511480002 19.8308438458679994
  5.9207798534580007  1.3844298553840002 19.8308438458679994
  5.8821642762270008  5.9323209511480002 19.8308438458679994
  3.1366966465420001  3.1634521446160004 19.8308438458679994
  3.0980811465420000  7.7113341446160009 19.8308438458679994
  7.6847426465420003  3.1634521446160004 19.8308438458679994
  7.6461362426340012  7.7113341446160009 19.8308438458679994
  3.6786259660290002  0.8620692246280001 21.4172918082639967
  3.6400104660290000  5.4099512246280002 21.4172918082639967
  8.2266719660290004  0.8620692246280001 21.4172918082639967
  8.1880564660290016  5.4099512246280002 21.4172918082639967
  0.8308045339710000  3.6858127753720002 21.4172918082639967
  0.7921890339710000  8.2336947753720011 21.4172918082639967
  5.3788505339710007  3.6858127753720002 21.4172918082639967
  5.3402350339710001  8.2336947753720011 21.4172918082639967
  1.3727338534580000  1.3844298553840002 23.0037746729340000
  1.3341182762270001  5.9323209511480002 23.0037746729340000
  5.9207798534580007  1.3844298553840002 23.0037746729340000
  5.8821642762270008  5.9323209511480002 23.0037746729340000
  3.1366966465420001  3.1634521446160004 23.0037746729340000
  3.0980811465420000  7.7113341446160009 23.0037746729340000
  7.6847426465420003  3.1634521446160004 23.0037746729340000
  7.6461362426340012  7.7113341446160009 23.0037746729340000
