 O Si Au 
 1.0000000000000000
     8.9848655900000001   -0.0000010900000000   -0.0000004000000000
    -0.0000010900000000    8.9848744800000002   -0.0000018100000000
    -0.0000004000000000   -0.0000018100000000    8.9848666399999999
 O   Si  Au 
  24  12   8
Cartesian
  1.5147382546033528  4.7288581853037126  7.7286040820954467
  5.8023236186676241  0.0686748939860414  3.2245603668487397
  7.6120664486933132  1.2769758609289914  4.6016329061898791
  3.3822173580466819  5.6437308128183430  0.3448614344919817
  4.6170476514761472  7.8092948323787583  1.3249440330517761
  0.3143818804612679  3.0238117218181033  5.9798338823552459
  1.3529986801450922  4.4270259958508724  1.4659123857782932
  5.9232025801446824  8.7260370967761176  6.0028250272205979
  4.2777670903445326  7.6216903748337455  7.8173721516056753
  8.9576993999859074  3.2113561717354329  3.3505795358006982
  7.8686565348991273  4.3015602892250744  7.9041049259867142
  3.1342650994661345  8.8125208966932522  3.3192499641569406
  1.2851408254492198  1.2400210573173087  4.4715186693604307
  6.0536563001092425  5.9335829744801218  8.8896527230897711
  7.6220763345269376  4.4205564805363267  1.4884986251407182
  3.0880212990464129  0.0415353056844240  6.0298651519594628
  4.5941731359675844  1.2443811304285775  7.9149409875567871
  0.0527885543400646  5.8724210320393047  3.2118336479371976
  1.3751170138489133  7.4978965771362072  4.7457083104146278
  5.7631623839337571  3.2460603821908727  0.1551528215042173
  4.2976081430839255  1.4257734130721607  1.5216685390707878
  8.7448874191894586  5.6716192805552543  5.8058220730825889
  7.7111542826355777  7.6671584169585918  4.4366891398259014
  3.0627154217951529  3.0045712949129100  0.0483048664426702
  2.3292015974317186  4.4505037116683166  0.1386309995748449
  6.6705135994073812  8.9536499467723303  4.5955854848816236
  8.9775284416370003  2.1553992888407540  4.6055144902254535
  4.5836845224202500  6.6577575332915089  0.1357215141328373
  4.4222070645545237  0.0539827230800749  2.3426612686464807
  0.0785772902124486  4.4291497287837753  6.8019400122902152
  4.4779168956970663  8.9250801024921245  6.8574266617908153
  0.0210580774936483  4.5052467722899090  2.3343156932877651
  6.8007534676809618  4.5200467318928563  0.1124458302513046
  2.2316480383716386  8.9020551047443224  4.6371559753740064
  4.4700890385710776  2.2807479122502574  0.1311643780907285
  8.9552580956196230  6.6953369697386265  4.5437907773831352
  4.3219287694151802  3.6346904293302007  2.8393485619195631
  4.6338449662309058  4.1591117359269321  6.8155720629526773
  4.4824112064955264  2.2095996273714982  5.1732209623121479
  4.6075080760465124  6.2624711831695992  5.1859867373020352
  6.2730324340182921  4.2087450479287956  4.6547793888017548
  2.6807841510599690  4.1744076694963406  4.9023846902059462
  5.6955994343655680  5.9531393839244604  2.7544055537426479
  3.0040812897644278  6.1279767549253865  3.1379797481071945
