 C  H  O Zr 
 1.0000000000000000
    14.7584491300000007   -0.0025687800000000   -0.0000491300000000
     7.3769987800000001   12.7801893100000008   -0.0008048000000000
     7.3784428499999999    4.2584711500000001   12.0510483599999993
 C   H   O   Zr 
  48  28  32   6
Cartesian
 17.4558679669301533  9.5028752519163113 11.1061093977494867
 12.9671032690995052  6.9101753749473538  3.7706802747589263
 13.0709216388716740 12.1569019297559660  7.3454008212502995
 17.5641216216512994  4.3754765898015391  7.3459201239812772
 10.7761646846914623  8.1757745387038181  7.3485140649622780
 19.7590452647632837  8.1751422850226128  7.3498419283225225
 17.4647287645000162 12.1542416175736072  7.3504934241219617
 12.9756031601990642  4.3760563059935844  7.3457907962560354
 13.0812407119443570  9.5015049069581838 11.1087653814015574
 17.5776047368517609  6.9112111085781791  3.7744427868292663
 15.2633839454828184 10.8959923707283153  3.7702511740988811
 15.2618073944026467  5.7040499140408336 11.1036180324486704
 10.8047355600895507  5.6658931357328868  0.2885128382972863
 12.2008485902355801  6.4703509394889434  2.5686186253719465
 12.3388231276274993 13.4575544158777181  7.3311810262846828
 18.3230734235847947  3.0910340159838481  7.3327699010495380
  9.2838929610139367  8.1576477704669053  7.3327174831650490
 21.2508703826747407  8.1570779341987247  7.3347112158798478
 18.2000352670102750 13.4528399450947855  7.3371775245616213
 12.2200945856524434  3.0891590884621607  7.3362498524419655
  4.9817596157939592  5.6635471787795053  0.2953779463768371
 18.3471200633138487  6.4683277862135098  2.5754900187763239
 15.2618310337227747 11.7800710595936042  2.5681790641105717
  7.8821423723309696  0.6061197767820625  0.2862091012615721
 11.2426432197887305  7.3199835078729176  1.9970403147026281
 11.7580984553194003  4.8136643853102701  0.8649756083564331
 11.3816522689240536 13.7142185809844719  6.3383676943715859
 26.6590342809977514 15.6159556207361589  8.3224843705055278
  8.5831909326654454  7.4496364283550367  8.3191597052018125
 21.9511857973550839  8.8606050218895671  6.3438264244661910
 17.9479488552860786 14.4085888110168376  8.3313386021739344
 19.8495919833809324 14.9131648597128148  6.3410937094401669
  5.2374751458590767  6.9191685228179747  0.8650737269997165
 18.0983158410441085  5.2092102317419222  2.0113582878983083
 14.0451134320048414 12.9885445055952875  0.8633961271841377
 16.4755288940553619 12.1841585541946795  1.9945549794527082
 18.6435729395009311 15.6114613170664818  8.3306652243854664
 19.1540578523291138 13.7098626133525450  6.3419558370357665
  4.0332202252979066  4.8097777142902043  0.8765338048903637
 19.3024788127807803  7.3186126994437561  2.0003990630007449
  8.5825194521956849  8.8621199966478255  6.3429271171272887
 21.9520452640868271  7.4479053674737496  8.3201228971685346
 10.5480932233162523  6.9198729284573579  0.8615426237440587
 12.4528451137941261  5.2141826272256910  1.9996060598528851
 12.5961244616698060 14.4157014333529947  8.3217373898672680
 25.4445417944760166 14.9149076164926715  6.3388055318420244
 14.0465519788776270 12.1891089453463497  2.0002772900472765
 16.4741492652578927 12.9834035506968490  0.8580723656066638
 11.0611210665519160  8.2906712594429894  2.4559643940432170
 11.9414352461374964  3.8441982984290015  0.4048771664960175
 11.1962017940825511 12.9566928646379793  5.5781785119894156
 19.4635900654212151  3.5918372331989854  9.0856215432459138
  9.1470579010302906  6.9093609774808140  9.0776941071898207
 21.3875261951345017  9.4041837559639951  5.5868494549222874
 17.2050065976801569 14.1865894096411367  9.0962649098951864
 13.2190949770459039  2.3515435161346625  5.5792681782314713
  5.9789876927868724  7.5667692505457262  0.3995156003103600
 17.3535038990290502  4.5641625553937928  2.4752439062810931
  5.7354481856863622  0.5325303164296555  0.4048222686637381
 17.4077905700444795 11.8568517535651718  2.4523915009056787
 11.0884775434273735  3.5862370484664430  9.0958615513288397
 19.3360345319193030 12.9527655525418375  5.5802051153611716
  3.8511627606010026  3.8386088260087616  0.4192354888014690
 19.4816310413832099  8.2917247645091674  2.4553581064438350
  9.1456401899526849  9.4052132669042763  5.5854492967769085
 21.3882409158695950  6.9085860050419150  9.0794281945809026
  9.8039113296824585  7.5670087629716054  0.3996686384470583
 13.1998919636058680  4.5693489978822450  2.4601889562580426
 13.3426229691390201 14.1952033863024578  9.0832771483385795
 17.3183116216577773  2.3530043334306230  5.5798392506413022
 13.1153674805516722 11.8660550087000729  2.4635644467032125
 10.0278879397912544  0.5246632554871746  0.3939888478056170
 12.4875822727927641  9.8407638138762046  8.5294204686892314
 15.2675932012121223  5.0272914296744924  8.5273936969436619
 15.2703725439150144  8.2381908074517440  3.9866817964460699
 18.0471063531569129  9.8411213166922238  8.5310937671035791
 13.2782634250998655  9.3837788695351421  8.2065882250036477
 16.7380125173434955  7.3894881482282875  6.7932565003514220
 17.2575899736739586  9.3830558464806675  8.2062796017471431
 13.7986461097096118  7.3881034549143614  6.7919095415092317
 15.2701580401493562  8.2353883845991600  4.9552760392393127
 15.2669677972379745  8.2364830571457119  9.1925517667032732
 15.2688219781001937  5.9403345545047497  8.2037484586405753
 15.2674690576361627  9.9331156771435793  6.7923561816586053
 16.6112835418738811 10.3276527248576606 10.6151481705742725
 13.8446046987414846  6.1034221976005547  4.2328617086118268
 13.9211569251729550 11.9732510199355886  8.2825519360413882
 16.6903934389621753  4.5470525303250628  6.4285109927659230
 11.3623473577855929  8.8484765972332582  6.4337690862338723
 19.1742549494067873  7.5318419400781629  8.2867772756822031
 12.7120175929549646  5.2038541275636963  8.2830130773345907
 17.7508813148290088 11.3104410795848374  6.4342968000410483
 12.7872952856865751  8.3577988124469762 10.6196525703652167
 17.8333036170731312  8.0750644782373975  4.2370579530107770
 14.1272585715085093 10.5358963135467008  4.2324003767058045
 16.3986160058326789  6.0252627124025402 10.6153353548805924
 16.6171255153461317 11.9703274388539338  8.2894156247926603
 13.8477263783427276  4.5503249006824653  6.4277285137028279
 13.9248908303463423 10.3257353349180541 10.6156810099362957
 16.7029019239698790  6.1033991365912090  4.2385784759166407
 11.3598435591088975  7.5344919327183373  8.2883207145003759
 19.1746744883211946  8.8499976013994921  6.4350713220366780
 12.7055632753062113  8.0707842069654365  4.2375996922218873
 17.7455605163574042  8.3574779479298513 10.6182694103423092
 12.7799291637287737 11.3123547776491087  6.4312700814424648
 17.8280112973844211  5.2018421031953359  8.2848678074828097
 14.1256147589298635  6.0241820986230197 10.6129308168785297
 16.4005058838144322 10.5439086483615689  4.2364059923774589
 15.2672560728777231 10.2761905218909551  8.8344419246385648
 15.2697911756956231  6.1975899870551796  5.9482681827833535
 13.5009822118244749  9.2559444319444673  5.9500121116058313
 17.0344775875975323  7.2149864523996161  8.8357486084706274
 13.5003487481601390  7.2164212410982405  8.8346845008465476
 17.0351000644784811  9.2570214715271693  5.9501941493866752
