 O Si Au 
 1.0000000000000000
    13.7029250099999995    0.0000001400000000    0.0000007200000000
     0.0000001300000000   12.6471261899999998   -0.0000012000000000
     0.0000009800000000   -0.0000017600000000   18.5380665200000010
 O   Si  Au 
  96  48   8
Cartesian
 13.6540455733314232 12.4879705972246722  2.6250381361184889
  6.7710288797029561  5.9759501749810671  2.9053219083811137
 13.5734789356213401 12.4495566502473931 12.6971964221372442
  6.7417056649830229  6.2573720016103787 12.2460807733105828
 13.5613714522432343 12.3523141485252097 15.4987482007741644
  6.7874474613631461  5.9056164843391645 16.0870393524713542
  0.0403176557325748 12.2180820085482100  7.0575267836200863
  6.6414898589327214  6.0730679646867847  6.8687041586135607
  1.5538627516830732 12.4996515253634346  4.8727674980759375
  8.5050875563813175  6.4904017157314904  4.8219279714443211
 12.0489753601135554 12.6424345259144992  4.8683328035635514
  5.0185244979385288  6.5795615181866660  4.8072747358688277
  2.1151423073342253 11.9536530922296063 14.1475441177620844
  8.4586344326244181  5.3320997464889013 14.0735477915019196
 11.3307040033690463 12.1352424013193616 14.0790532880436370
  4.9917808463739375  5.6446306804512840 14.1485088469901967
  1.8861753148183271  1.5539542999762748  2.7835659041901608
  8.5056062524315319  8.0184728541102359  2.6957680579207244
 11.7954570509852203  1.7913042790274905  2.8268596467470584
  5.1380842070519313  8.1085416000920123  2.7511475654517472
  1.5309834697844440 10.4547397986051749 11.9849723612302341
  8.5710378821463564  4.2669262502600578 11.6888638548318902
 11.9566225321173114 10.2765564184749003 12.2253877345952819
  5.1095772256972563  4.1036029700588941 11.9818507853344958
 11.8555776459322502 10.4747008486496362 16.1362282763242035
  4.7671066962026147  4.2136928713659998 16.4040103126749095
  1.6648944328725979 10.4641711175003937 16.2329321220124321
  8.7333679122512660  4.0588465572019183 16.4089260894870250
 11.7252319739411490  1.4643197627717290  7.0740678955067251
  4.8980022027214822  7.9865901291938952  7.1319961512330208
  1.9315448199634238  1.5339920663833861  6.8860811838517426
  8.4507343462620881  8.0809756887033952  6.9165335724471619
  2.4599501800513521 11.5121494590925497  2.6813429392101460
  9.3463202685574966  5.5775137837547426  2.5141679510256121
 11.1276846915236387 11.7540654309974588  2.5817044156160347
  4.2550067062029457  5.5167071006943722  2.5894733938584458
  2.3428582337281321  0.4677288334822362 11.8290945361099773
  9.2251417028272691  6.8229648188860148 11.9384798246514414
 11.1478667212797014  0.2109041264042807 11.6701563144860021
  4.2294127430825803  6.6141120378569180 11.7821280458998441
 11.1072939853776411  0.2879853745872643 16.4743099618676183
  4.2860464891831516  6.7909270309452081 16.3289293904107282
  2.2130535550689014  0.4815650940976466 16.5998852264878778
  9.2768007265791699  6.5731165037372232 16.3326758457914814
 11.1597804706054404 11.5722764697952005  7.1571070634128171
  4.1075808668452600  5.3877875687139216  6.9848927200734074
  2.6091236133276712 11.6917138159547846  7.1853167201446899
  9.2668173734944208  5.5473775215011836  7.1087986319251844
  1.7856167739666826 10.6069302273916524  0.3280433365015764
  8.7022748609462290  3.9694265587948405  0.5289973415530116
 11.7526856582993382 10.3556822632593839  0.3715527261681860
  4.8358353418079298  4.0055636587495016  0.5299498062063001
  1.8822629385024012  1.7678866318896791  9.4930673934780394
  8.7687430595675426  7.9356924671847846  9.5282822666387990
 11.6559139509628391  1.8058293566996448  9.6861172105973363
  4.8186713156546741  7.9697038098637973  9.8183777705091853
 11.7131719385247557  1.6964085942951534  0.1211724871113268
  4.9372866130387383  8.0278501440357299  0.1558423492439048
  2.0821474297489613  2.0681717723438036  0.2231131443440516
  8.5965512082481883  8.0078473898501024 18.4928961736192932
 11.6658126147743904 10.5658331238893552  9.5315291116558267
  4.8395079190062171  4.2433639552298761  9.3243659033709143
  1.7791231561409115 10.4251078394442285  9.2994066155452266
  8.7807597737059684  3.8492955024388440  9.0753303967356231
 13.6205289802651173  9.0562851719338830 17.6972901659102249
  6.7648327557914207  2.8572213289511166 17.6964895494012140
 13.6000654213797034  2.9056420841860224  8.1131544781862246
  6.7170962777505725  9.3293192184664804  8.4863651990642115
 13.6613977125416444  3.0492360490540409  1.3352625083672265
  6.8399479560548917  9.5087134616951587  1.1014980012763287
 13.5440954607940611  9.0219529616836454 10.4184012112311173
  6.7775109994550187  2.7366809987068961 10.3860056246720269
  2.4906590473456744  8.3078209420756561 17.4798937460442545
  9.2000031163696061  1.8133954754214696 17.6728361304190145
 11.0519697921156723  8.3249867255941492 17.4312933160228241
  4.4048556541725423  1.8050569423456335 17.4710785007118083
  2.4754389393084852  3.8753391285723486  8.0647218052029785
  9.3178077108405901 10.1739773175333497  8.2717037143025482
 11.1890589237699771  3.8063748300051103  7.9371913093925111
  4.1246767603241903 10.0509095823099806  8.4282917202986543
 11.1686332834443665  3.9726594690892245  1.5798935816597672
  4.3526059127091941 10.2193496097399077  1.4120170910691048
  2.3794804487173633  4.0831552825443538  1.7350411541589994
  9.3386559420075628 10.1609142381830466  1.4993752163638172
 11.2335371659637637  8.0823438999456556 10.7369984293793994
  4.1157150854294269  2.0751689593382108 10.6991021828804875
  2.3131889619995487  8.1993447659021204 10.8448959850411022
  9.1855583662940052  1.8341811678252218 10.8628024977771620
 10.0855510882861346 12.2994691699369252  0.1930234583240964
  3.2219384093343688  6.0394571816638551  0.1919427369969656
  3.4927508987960594 12.5062155795030669  0.3564278065422200
 10.4857981158368201  6.0959888997794645  0.1750584569347836
  9.8464452632931714 12.4564934962632510  9.3814863607716621
  2.9539254422594929  6.0737449391707097  9.4118786520056190
  3.6035325437727801 12.4199160311201329  9.5431689348430826
 10.4044814829131340  5.8267657156845445  9.6465207509012263
  1.4786045659900682  0.0400623882405021  3.2432342554218176
  8.2548794634034230  6.5219018050560296  3.2670270486898558
 12.1297029137735866  0.1743552482629689  3.2371107520510729
  5.2920469942936146  6.5754736119055348  3.2484550821280562
  1.4653223904980772 11.9435036592890373 12.6159573919406593
  8.2382123870785051  5.6481490523639275 12.4507910315270944
 12.0299518540068409 11.9316073754367356 12.6055262073801781
  5.2881210408200392  5.6262278741982232 12.5631921811875600
 11.9714324351664221 11.9619669016471413 15.5444900918860007
  5.2043583804364761  5.6484339011360323 15.7468507572167020
  1.4534415678381136 12.0178746696952672 15.6553725688696836
  8.2998861349731072  5.4937643881144966 15.7179080074265105
 12.1960903308919040  0.0441072453381559  6.5004713574890518
  5.1495159123711991  6.5091304065914262  6.4133483202556008
  1.4769624429417016  0.0329084842836078  6.5079696286188433
  8.2015585368474486  6.5643993864379482  6.4613364851315884
  1.5130685538645015  9.5879312887858248 17.6059424149972941
  8.3546833927606112  3.1586464967233092 17.7391386509346276
 12.0949219048910752  9.5496638567632903 17.5235827942237385
  5.1871159320569058  3.2078807167242105 17.7193815354342661
  1.4963095752860924  2.5576795563760899  8.0893773218707814
  8.2700619111890923  8.9585167664421768  8.3172280752915881
 12.0305017024793823  2.4817163232757578  8.3147017781900079
  5.1531952808958126  8.8109815416603521  8.4846680060829751
 12.0532095541524811  2.6131962462586742  1.4490635772318514
  5.3306967053597019  8.9559655839578980  1.3844337316376161
  1.5622875852126159  2.6645878462922616  1.6231430663556783
  8.3534002647702064  8.8918024483622933  1.3348569891126965
 12.0341823730067059  9.4840527240844903 10.7723524704904356
  5.1972039251327855  3.2786751969847305 10.6237914156563509
  1.4216885846798024  9.5329608368591661 10.6288296410921870
  8.3138462394872086  3.1647097076208253 10.5250469104843773
 10.5679791837023007 11.1699895278115875  1.1674030905796049
  3.6466928144830035  4.8776485701406855  1.2234946933405768
  3.0665668035146356 11.1773681617403611  1.1912478399321760
  9.8722046043804905  4.9196612574059388  1.1318722911155139
 10.4435350827313851  0.8966502654511039 10.4061653977037345
  3.5463462585450003  7.2125596239722185 10.4551987342567028
  2.8926665148009194  0.9829725183367515 10.3790130282547501
  9.8960591727512437  7.2222026167251592 10.4547315369404252
  3.0241333237865939  1.0819364538873004 17.8946000913950272
  9.8518288450245652  7.2488714267426984 17.7268407443188600
 10.5711432809783012  0.8920453723619376 17.8646135149369378
  3.7237436191265432  7.2856779080335450 17.8114911627469361
  3.0162099078844919 11.1975827459445867  8.6512885507542485
  9.9397695898227365  4.8134696034762436  8.4198810604865049
 10.5184251410409999 11.2325984205646012  8.5925759188652169
  3.5929438866725762  4.9016170925559042  8.4913090012237298
  6.4876148053583638  9.0428159506311871 11.9373204702666786
  5.3285265246993196  0.3034624852491819 12.5191851722398777
  4.2872274682948701 10.4822486292435055 11.5815328255234320
  7.6610007615545950 12.0062038089927032 13.3029556549436343
  5.3804712155157972 10.5572907536144491 14.1347637226244505
  6.6766612827179310 11.4084931371393488 10.8099036408365237
  7.9261319641042922  9.3823853965829471 14.2097081801429752
  9.0290942523333797 10.2959910234685452 11.7089554194791035
