 O Si Au 
 1.0000000000000000
    11.9587094399999998   -0.0000003700000000    0.0000010700000000
    -0.0000003700000000   11.9587162199999995   -0.0000031600000000
     0.0000010700000000   -0.0000031600000000   11.9587174399999991
 O   Si  Au 
  48  24   8
Cartesian
 11.7030050185082040  2.1028454461708517  6.6566801590926623
  5.7007666039477902 11.0622765500299121  3.2226575172268701
  2.0974154784480818  5.3607203896907860  0.8717526788361663
  5.6775189738040339 11.6875678311922542  9.9139778343595069
  8.8900027088385212  5.5379259509595569  0.5711348811806186
  2.3177488099821542 11.4277147455724570  6.6425863769145073
 11.7237254593123748  5.3730443822662979  3.1488261988157840
  5.5683004876011708  1.9256741260244703  0.3960150699710079
 11.5313058942954001  5.4380610322359200 10.0356377162466135
  5.6930726034995729  8.6936546362631333  1.0003433713754155
  0.0001611779288009  8.5783540637009654  6.6912828198870482
  8.7496596152548065 11.4486948779421613  6.7953431787159575
  1.0490236551256915  0.8277951550365131  4.7703945668558037
  3.8677836736722675  0.7268063327371950  2.0834835433896783
  0.8113328593532998  3.2390469185022868  1.9824587095824495
  1.1805660988959465  0.8805160348301979  8.6682813515927446
  3.5126228064168088  0.4444156540319925 11.4231980183776880
  0.9562575700255518  3.5304097423713232 11.2273697472639089
 10.3717514611098416  0.5559614561810335  5.0398061232205809
  7.2996074169186942  0.9116618664413532  2.2457430282706130
 10.1271810160453608  3.5794641633505933  1.9838323139230212
 10.5017246513789573  0.6187446119848914  8.5874578279058049
  7.5796964478425410  0.4068016850136439 11.7753643239866825
 10.2472335415025295  3.5495315404443422 11.3079369312587943
  0.9217520843758243 10.1752081346283614  4.7837451893788314
  1.2430981341508665  7.4548635760749047  2.2919292705059520
  3.5910772453258915 10.0812641364136582  1.8723315935461815
  0.8695606750408839 10.1934159352617222  8.6462847485484637
  0.8849640781786318  7.3644936699547729 11.5373740816057886
  4.1490827053542096  9.8034085567138405 11.1238451069109381
 10.2453205049502003  9.9010454977531008  8.1379006152643480
  7.2026458801230762  9.8171116034137267 11.0972732259416365
 10.1893111655561519  7.3870449767699009 11.2088267257995167
 10.1860294275463126  9.9099518453818973  5.0747565742158773
  7.8131608278970921 10.2520243336870269  1.7769991833305052
 10.4247267398359309  7.2831478293129397  1.9048605362143689
 11.4550092428784716  2.8764202997998471  4.1880753757618994
  3.2624347426324758 11.2075791957048274  4.1936013151236970
  3.0092942732717880  2.7502685414459496  0.5698403212870744
 11.4614807744999769  2.9514454829863994  9.0731626391885651
  3.3444936870717745 11.1458935468172626  9.0097369288355900
  8.1366511555072005 11.3005971748954046  4.1694372246803155
  8.0347168488836989  2.9633410096729822  0.6028779870185295
  8.2912902843631660 11.5278111623552455  9.3796586688440389
 11.5631847061216870  7.8788000754232135  4.2161463156801480
  3.2343953977537621  7.7613301675402981  0.3508379485296300
 11.6843613146487844  7.8830018994286197  9.1443310319306743
  8.0996205782484356  7.8508146983436795  0.8049128943764862
 11.6419732661903161  1.5657294400992459  5.1305710807858826
  4.1409313399826848 11.2985418266560451  2.8409623204210308
  1.7984017365011966  3.7691270062853208  0.7135058760956748
 11.7315698636931387  1.6248946158343704  8.1927806523777793
  4.1641890771483059 11.2451972566181659 10.4025654477330072
  7.2703407173944603 11.3697919978354349  2.8500845716722027
  9.3355945603050667  3.9124193685982012  0.6040969242830336
  7.1326438040218534 11.3437889678046027 10.5503033237742123
  1.8975626695612677 11.4384337744633218  5.0586526569249859
 11.5187514036701124  3.7637692490816805  2.7931401471171116
  4.0473462927564672  1.5071771613387626  0.6359634810488647
  1.9063251007710833 11.3918524222119419  8.2256109274402682
 11.6041505397968745  3.8453146835314627 10.3827987542212625
 11.7694803630006373  6.9665625279640961  2.8579848706196826
  4.1556149534383247  9.0846365112527092  0.6548399981495295
 11.6316636177816015  7.0113641965868991 10.5203474468348279
 11.6585167429552214  9.1441455296241774  8.1680198086973448
  9.4794046470619318  7.0224993569590284  0.6609699816723689
 11.6454105672149257  9.1239952865247584  5.1735660544987132
  1.8532837517470129  6.9482415471674495  0.8070950399193391
  9.5030460109971600 11.3733723600279912  8.3125325930517526
  7.2248894824570646  9.1619255951519811  0.6702347093088816
  9.3511368873031309 11.2917765724888906  5.2824130441900810
  7.1240383435230958  1.6397012407239282  0.8116228104614409
  7.1242158277240017  4.1415667674710326  3.2027742788007565
  3.0401101478140746  4.5895868840207807  4.7073788440656195
  5.1912432437610203  2.5976795992022703  4.9475519862411428
  4.2038818044433919  6.5696118669693080  3.1809242012140100
  5.5955831707666901  5.2292292408888050  5.1441233429081104
  4.5533819445650447  3.7280461865587595  2.6484364213916782
  6.9458104671175285  6.8795909891103646  3.3521508355763316
  5.9738841457320824  5.5294173648329252  1.2120135313145546
