 O Si Au 
 1.0000000000000000
    11.9587094399999998   -0.0000003700000000    0.0000010700000000
    -0.0000003700000000   11.9587162199999995   -0.0000031600000000
     0.0000010700000000   -0.0000031600000000   11.9587174399999991
 O   Si  Au 
  48  24   8
Cartesian
 11.7746830168917924  2.0890154535157577  6.6415004235883739
  5.7557529285841511 11.5952512013166835  3.1857680126515846
  2.2511943960853533  5.5172735658945902  0.4837186143368098
  5.8099661914775211 11.4914235542581746 10.1087276429352695
  9.1954342125281432  5.5480077061618154  0.9053602448937492
  2.3122365120375719 11.5201326988763828  6.6194945071126972
 11.6533797935612178  5.5152303290857949  3.1446459530330810
  5.7528607471603603  2.0220689114722301  0.5569289599197264
 11.9723270393579817  5.5577587811876201 10.0775872172602892
  5.8002008662634070  8.9316686566536880  0.6663474153435774
 11.7831544154843275  8.9948415537873352  6.6582002451404652
  9.2383904137758428 11.5293790974952994  6.6589809251378096
  1.1550331464526338  0.9289972525413984  4.6444918556377690
  3.7444858117251325  0.9449340578303241  1.9898499565909931
  1.2401936421603508  3.5891826602991266  2.0836591341740318
  1.1709278178224749  0.9131466064355332  8.6168575076963538
  3.7701546046099992  0.7497038718372823 11.3099337470489800
  0.9168109860543712  3.4587882933064100 11.4356682502452376
 10.4480408104526425  0.8626498932576204  4.6679136981599454
  7.7628229665108535  0.8962738219490266  1.9848902421379007
 10.5445392544006413  3.4612986261780403  1.8511044156460477
 10.4509966833960934  0.8962954547046391  8.6315802035515397
  7.7928862279873670  0.9052283289304970 11.2863257050429837
 10.2620487179383453  3.8024531304899325 11.1543964452380191
  1.0893012480431516 10.2082461624882388  4.6418605101754125
  1.2426979065690151  7.4111548588036698  2.1089411070950410
  3.8384439760967184 10.2361454280202810  1.9196514032353071
  1.1526339249153366 10.1997155354265772  8.6310619535012698
  1.0548187558003994  7.6356342371936261 11.4151725401055728
  3.8454392204088088 10.0549440755479278 11.2026827439739076
 10.4425741020348912 10.1879562907961905  8.6312600525253504
  7.7837458777292712 10.1951870536155305 11.3457420708549055
 10.3639724651012024  7.3344212256251806 11.2522468573119276
 10.3821693701618472 10.1460876790408641  4.6871697450544101
  7.7086463845495521 10.1815272509819401  2.0567321204530344
 10.5377948635149288  7.6112245813953834  1.9461863407724371
 11.7164548875425023  3.1361376824477873  4.2274556143963622
  3.3569177600702602 11.5041281548042669  4.2075681621478944
  3.2936083374758311  3.0571671234830973  0.3846262581629175
 11.7589793518459338  3.1502668567261569  9.0492517244642290
  3.4231793432429338 11.4905420693679154  8.9974938473179549
  8.1636611701188322 11.5536411090753006  4.2645341147819398
  8.1745674876853407  3.1444283489221800  0.6522249257194954
  8.2050578717033780 11.5023098224614504  9.0656656829538989
 11.7617152823474154  7.9119032016278945  4.2727297831068185
  3.3973771456059074  7.9007425768430428  0.6895272680099546
 11.7751054354923514  7.9623882133109367  9.0854535604677906
  8.2113429213949800  7.9487794848257645  0.7219329985034934
 11.7620344667839536  1.7439320981890893  5.0548457409872976
  4.1775178767532379 11.5611953140330392  2.8137526212092481
  1.9477320830463201  3.9315317484202068  0.6508006759192987
 11.7809105104712692  1.7510720966892359  8.2320514656842771
  4.2166877592482477 11.4342629957445059 10.4113808545766773
  7.3456566546033093 11.5489939249651368  2.8687440153201034
  9.5649277314139720  3.9856782212795920  0.6576635896868442
  7.3929705090871707 11.5138848637651865 10.4643070367893110
  1.9629573910624531 11.5274669929214628  5.0353800038579184
 11.7786878192058868  3.9310067836872995  2.8191571113909593
  4.1626668566174096  1.7054014022667032  0.6086453375035655
  2.0032499925070004 11.5253734555888894  8.2146019331478008
 11.7170383600409416  3.9926422501792618 10.4336892118144426
 11.7914551086938033  7.1080827955776211  2.8668049596426362
  4.2178076921065184  9.2975571321532762  0.6403272956623328
 11.7836023168080679  7.1231966112435616 10.4697769391121387
 11.7799394737480601  9.3448352423780570  8.2442650639669530
  9.5975084251903482  7.1108836390837213  0.7138905344632940
 11.7423986478983338  9.3258947502319582  5.0690826787868346
  1.9859149880817883  7.1055284852353964  0.6927337879149530
  9.5966887905862546 11.5228044540150076  8.2411501914151426
  7.3713096071919137  9.3344543473257104  0.7080510131311815
  9.5699071251018459 11.5099189238092841  5.0717816352035845
  7.3484299396318189  1.7444193009717772  0.6567240850903860
  6.7822742463239916  3.7188787947506645  2.9769861008725274
  3.2104783014027949  4.8350093613606218  5.0191695362213089
  4.9276562420145700  2.5278110356101111  4.5812286320345459
  4.5828363148046876  6.6497867704992384  3.4992710831641332
  5.8764917375414676  4.9654033023023390  5.1809596204300838
  4.1333352084422303  4.1530230813061877  2.6279849666512289
  7.3177478609077875  6.3761853639810759  3.4790706306071071
  5.8297658788931255  5.6605656973729124  1.2787968868336013
