 O Si Au 
 1.0000000000000000
    13.7065166200000004   -0.0000588000000000    0.0000243500000000
    -6.8533092299999998   11.8701637400000006   -0.0000225700000000
     0.0000263400000000   -0.0000129700000000   14.8090446000000000
 O   Si  Au 
  72  36   8
Cartesian
 11.3817578982948131  1.1267813213764757  1.9462800008189503
  4.6637574893060973  4.9634521504546134  6.8498133406514556
 -2.4896703342949280  9.0782419439079867 12.0614728635698665
  6.4663248824214046  9.4252536702272760  1.8260443253298797
  6.5443405144889661  1.7565304678059339  6.5974317565172456
 -0.4325499527852315  5.6134477967491030 11.8570757890142318
  1.4593223748558188  0.9296180136541361  1.9154434433221719
  8.4272350815558088  5.1669235226291335  6.5107364137167663
  1.6111362896268353  8.9381891938079541 11.6299692947677631
 -5.2528154676921277 10.6726209996700412 13.0580727581667393
  8.4101196064763926  2.9953612899944746  3.0397202183425609
  1.4812285771889970  6.7003108974358829  8.3016493566841145
 -0.3521395317549513  2.2484065246948792 13.1293804708292736
  6.5937605096392264  6.2716316445111167  3.2218458230841711
 -0.3986884555791432 10.1932694327810900  8.5848109945334805
  4.4745795882453265 10.6383314578606853 12.9016214061585774
  4.7323580420362639  2.8061908296200042  3.4881127652822488
 -2.2623157725887890  6.7869437897089995  8.1802146844027916
 10.9791526019092807  3.7611999458980501  2.6278690318088302
  3.9570938257067176  7.5032298978586889  7.4612916025943239
 -2.7208612307841840 11.6176973733550870 12.5625238867106805
  4.4588245140665554  7.8020354830551764  2.5650280188431744
 -2.1198987321133913 11.8567364198654914  7.5154129376628678
 11.3155607494127430  3.8749587748176046 12.5323048716267156
  4.0773542907074791  0.4051620982143756  2.5382895727347030
 10.6578882435467399  4.3099314227896874  7.6184464082110193
  3.9767591625360410  8.0656217111481752 12.4672320313001350
  9.0037073843461801  0.5006635999566027  2.4202578639155159
  2.1714122626243499  4.2262201057923336  7.4925755548387043
  8.8165137861179907  8.0733659410694276 12.4386371009017118
  2.1946416914714693  3.4590095710793709  2.5797870859523324
  9.0022487975937366  7.6746208763232442  7.5424015557299082
  1.9022555510116621 11.4785197008198629 12.5414924196418571
  8.6839191389930939  7.8859669989507371  2.5474972478932107
  1.4402455090789950 11.6892720549774012  7.3294395781148012
  1.4365847584249043  3.9499264491015924 12.4676580675715893
 -0.3307543099660116  2.9267366724528152  1.9958575500884534
  6.5285277341570831  6.9622803201127432  6.9478487050318911
 -0.4382128380707126 10.6424290672756801 11.7119073442803909
  3.9452756070919230 10.3874508587553080  2.1757816927909537
  4.0014029769733126  2.4166302934562056  6.9986660251568420
 -2.8727253621477766  6.5052725400288329 11.8080591032602840
 -4.7269986276066280 10.4026467419420641  2.2617705399512706
  8.9575626575900777  2.4572851926277446  7.2021463281974851
  2.1314812450828873  6.3505337383790064 11.7909925599826266
  6.3861602836508311  8.8493722666360082 13.1248442827317078
  6.5528491624775214  1.0302589318498383  3.1420777193783889
 -0.4617251617680994  4.9121140691965763  7.8166423748653839
  2.0465395831792188  1.3422372638777971 12.9008310243987001
  9.1265419579561833  5.4465144238662981  3.2477476214931231
  1.9955522678304158  9.1994007790619801  8.0973068127918975
 10.8389309450902402  1.3052932819681378 12.7625488594736467
  4.2360043060959987  5.1633346037519621  2.8969343878663620
 -2.8155119761627216  9.3617636007422949  7.9014208158913979
 11.4341077680231820  2.8131849659959727  0.0539634966160094
  4.7413373045524096  6.8168458660022990  5.0234273420447941
 -2.6891931071490061 10.8278079841552977 10.0630971814330827
  4.4031753171832371  8.8775394571252360  0.1195247356176288
  4.6473137414942167  0.8194815337067910  5.0399990090324067
 -2.0200179419287516  4.6851934108519062 10.0423463559021720
 -3.7380682972583443 11.7798653669334730  0.1982058076060695
 10.0715548223811044  3.6709947085227954  5.0983762936695385
  3.2619072423017643  7.8667822048753893  9.9121281385924629
  3.0294152529362979 11.6493508167045139  0.0401130301739184
  2.9570808624140517  4.0419076073455411  5.0632193937219423
 -3.7762371081085795  8.1355823294496545  9.9808151500311908
  1.4861328264318734  2.9177650283331613  0.0974249390771882
  8.1375942361016449  7.3559343243762463  5.0398730162567924
  1.6064991417330867 10.9780027843412071 10.0608511889858878
  8.4159678686474830  8.7638819897604563  0.0950349904830849
  8.4717212541491218  1.0184506358816363  4.9979805221752622
  1.2264303196286124  4.6079115477566805  9.9168459822577884
 11.8126538971579151  2.6610071939068143  1.6319584877634636
  4.9679473607097693  6.5442707652351668  6.6456945479923073
 -2.0875298092345194 10.5675985314339655 11.5481964153261263
  4.8667860491577644  9.1057053375680095  1.7135910604620346
  5.0279666487990395  1.2355932731365813  6.5345697153154747
 -2.0202236527285486  5.1608451963224926 11.5883434064419042
 -4.1293655862865348 11.7923348144845388  1.7195486196207568
  9.4630761724760948  3.9124080515381103  6.6162721585064803
  2.7282384763590781  7.8353471056629491 11.4601119111833594
  3.4141357396943013 11.8651541932381797  1.6098891345603226
  3.4603861907047220  3.8589392624553516  6.6154412684301036
 -3.4966203402715856  7.9575082736109817 11.5498633999920344
  1.2366715293484243  2.5438350573003907  1.6878069226457575
  8.0567323053482038  6.7051728984068033  6.5951289322531066
  1.1712017617636119 10.5149187183924973 11.4870773267239557
  8.1159706821803557  9.1325370370759700  1.6864685646864621
  8.0609900410129978  1.2538754109004546  6.5933009462655514
  1.0360484683532880  5.1799658691705970 11.5003189711499481
  7.9732415387278506  9.1299207311491131 13.3747814716973714
  8.1095107072102142  1.3570742017361956  3.4177587088280661
  1.1191941988970702  5.0756174314959246  8.3662994647698739
  1.1858874276800542  2.6176118451469592 13.3376054514474092
  8.1953756956198465  6.7308932968688735  3.5289718574413298
  1.1853696392971154 10.5543009197746720  8.4993422030362691
  3.3645497542945830 11.7793661203118507 13.2382948074859037
  3.4728048615707485  3.8872095978430501  3.4959866599002676
 -3.4075891280097461  7.9476109274355178  8.4352538880216805
 -4.1414858496968376 11.8163201021467597 13.4126308400888341
  9.6466842142178297  3.9221729248767665  3.5186631362648884
  2.6931877455709983  7.8156377650176880  8.4370983495784060
  4.8133617991670787  9.1222394339363593 13.4184961629245763
  4.9881559707766110  1.2560763372912243  3.5220558707688929
 -1.9397579870801422  5.1961457190729314  8.4276552012203840
 11.7625839740427800  2.5304718954199559 13.2901788042370672
  5.0403106804295330  6.5301719875603172  3.4742832905323451
 -1.9492357132309739 10.6055877496012982  8.5207983011289734
  6.7748154799300826  3.9475154927166645  8.6979889681006259
  6.7126039116120246  2.1296845717560942 12.0859959723620207
  6.5686201589479447  1.3004008515147665  9.4600827182483371
  7.2039251435946836  4.7610978195765483 11.7514269762287196
  8.7257487913963789  3.0551095147561207 10.4134763480143935
  5.0392464374210704  3.4136424629013229 10.5221660951603120
  8.4892135843937577  5.7249524989193912  9.6477592029518107
  5.4751510974372639  5.9549687179414210  9.9541585552695295
