 O Si Au 
 1.0000000000000000
    13.7065166200000004   -0.0000588000000000    0.0000243500000000
    -6.8533092299999998   11.8701637400000006   -0.0000225700000000
     0.0000263400000000   -0.0000129700000000   14.8090446000000000
 O   Si  Au 
  72  36   8
Cartesian
 11.4813409024499613  1.2779830443446862  1.5135916015557680
  4.8963985311037694  5.0402851002461375  6.7226838142964969
 -2.0239421598879703  9.0079697138735639 11.7748923793774072
  6.8156364264194016  9.4229939479150566  2.0180214051784824
  6.6926278064109734  1.7504949399380683  6.4581603652983786
 -0.2073875064479046  5.7176068098377186 11.6930049155984026
  1.7297747530148049  0.9626330617370003  2.0245499752366540
  8.4317089478545846  5.1140182622659660  6.5705876660168716
  1.8733223097285427  9.2764853870925830 11.7284194004333973
 -5.0583339762370949 10.7403042900074883 13.0293711907856054
  8.7949495127934156  2.7651459147879214  2.9791801002865750
  1.6741796743555026  6.8595259418080223  8.1892955600154629
 -0.1325509550924278  2.3894002290389724 12.9896655466366600
  6.6501285408325757  6.4171382275215674  3.1000625808995887
 -0.1739838274769459 10.1706150451989537  8.2959729939696771
  4.6557684396764198 10.7914427392937551 13.0065762548509785
  4.8418857332588603  2.8605129911520204  3.3184347296152428
 -1.9419083965276189  6.9577793640223957  8.3642777559757508
 11.1388682045565606  3.7099312384877066  2.5849573399975547
  4.1291311742997392  7.3926460672412126  7.4287153649330797
 -2.5599081564167738 11.6403202699549304 12.4932893517939707
  4.5078235482912481  7.9950271793373879  2.5403575494854507
  4.8923771112537606  0.1137234828175559  7.4808663335509067
 -2.2201796371679126  3.9658497691063563 12.3425010618375630
  4.3094237528013490  0.2972516148231890  2.5334578882579164
 10.9665123116630667  4.5313287020125266  7.4116314945178283
  4.1890031588453462  8.1471887016347821 12.4471854813422684
  9.1971112752282416  0.2410364331261699  2.4530631342795717
  2.3581840556860980  4.3693560441893693  7.6138473237060458
 -4.5594049380674928  8.2221709985591378 12.3760581745715559
  2.3684641828623914  3.4815626721456452  2.7176040463100843
  9.2951656324100860  7.4934556352882975  7.3797231027377848
  9.1237173772115856  0.0497825358045625 12.3427392269700480
  8.7859293461592376  7.8986833790765365  2.4271268378443991
  1.6663745814519206 11.8500189401027054  7.3257338756580692
  1.9442732742399116  4.1720049602716509 12.6354726470634962
 -0.1694267547111434  2.9616926866461966  2.0054990864753210
  6.6819723206796482  6.9657057672500065  6.9152741115853615
 -0.1152468115653573 10.9857975715065557 11.6879782745353182
  4.4820356843593467 10.5948673842134813  2.0608393994286325
  4.2031711107809517  2.5078613982269604  6.9792238052354270
 -2.7393654960714344  6.4976308648417698 11.7412684824571976
 -4.3404756048305035 10.3195006958556856  2.0271810758329929
  9.2654097947529817  2.4927092923699909  6.9835358757796762
  2.1427480562608316  6.6906936178546559 11.9484910622379079
  6.6710669983474213  9.0257114291003120 12.8047152959778767
  6.6931776521008075  1.0722815305580871  3.0549440309867544
 -0.1899812394498507  5.0177070734155507  8.0119804313173848
  2.1964121563590626  1.4143726283312565 12.7493124876561854
  9.0412480279000178  5.3272997504141628  2.9270637852616290
  2.3564645697781264  9.3796419960416593  7.8283209931725697
 11.1063882512096512  1.5896696019729293 13.1352979213300518
  4.1842035740310397  5.4410101372729587  3.0452330100226179
 -2.7400065504996474  9.4476096376828078  7.7588188088712648
 -1.7563176983156661  3.4155305376364407  0.0184822405440742
  4.8983786866499113  7.1051218847217354  4.9843135718957177
 -2.1376311737072053 10.8760042875427523  9.9400525812269116
  5.0962680675263137  8.9254376551373742  0.0337618607047957
  4.8110015162534738  0.8479670097717353  5.0485824490419713
 -1.9737565407877178  4.7525894419017005  9.9287885518080135
  3.3639979450279180  0.1705679917830499  0.0828563596799639
 10.1331457448468676  3.8303983068708378  5.0231057401444899
  3.3363081111338921  7.9828446189751450  9.9098001873181101
  3.0212415367734549 11.7844036659975213  0.0347767543439928
  3.1586674441744669  4.0686012394358055  5.0755870577954019
 -3.7092630970164318  8.1957689234106006  9.8925390938070432
  1.7293185523400612  2.9001827528527007  0.1204395303504678
  8.5309146237280267  7.1185445438002839  4.9120231462323503
  1.8946619086536838 11.1008804709226112  9.9204058723113704
  8.3669260332797268  8.8141311466368180  0.0306366922789715
  8.6715303099421188  0.8919478476303525  4.8740982947680358
  1.5021659718061848  4.8152037895641602 10.0000172911322966
 12.0146196291014196  2.8338619068008675  1.5501742654804249
  5.1665242683926271  6.6195699274230630  6.4686404151285686
 -1.6948374627121139 10.6314930024935670 11.4871783139013957
  5.2192616179463904  9.2198601804286220  1.6153999202747142
  5.1288672638113351  1.3267823301085355  6.4984940935236049
 -1.7722476389526864  5.2492333171615391 11.4416231601999794
 -3.8912943685034325 11.8288300087767890  1.6474357755591049
  9.6790986026895851  4.0184688468269627  6.5548877748055512
  2.8678876020745578  8.0480948764634697 11.5147887427142468
 10.4709243023107472  0.0083162561946119  1.5230833678971949
  3.6364587818836807  4.0416341135181417  6.6214341973159874
 -3.2468725046704705  8.0072074546143064 11.4144177607037296
  1.3898158278448545  2.5493725098108113  1.7110871560624976
  8.2104851354225001  6.6928752728603103  6.4385716989184543
  1.4378081466502304 10.8558450475737764 11.4836854901349650
  8.3442336886096200  9.1389012558656120  1.5998233179397638
  8.2708204198587794  1.2799799716392608  6.3801827063412002
  1.3682760014590623  5.3037633547932366 11.5708079877062122
  8.1589284688997434  9.1655158543759754 13.2411261444466959
  8.2950699280106246  1.2492871569391368  3.3820138014664973
  1.3468027050038698  5.3076756769820559  8.5077824642931397
  1.4872409207658537  2.7533651595825677 13.2972728425973941
  8.2857674623534443  6.7068611279843910  3.3728075538641140
  1.4141202515056013 10.5964242659805965  8.4198840513660897
 10.4437452917878755  0.1042454318004028 13.3432253241925292
  3.6620886479047301  3.9881809981453729  3.5155490632994604
 -3.2304511080591354  7.9993408311970411  8.4070381885534786
  2.9026841210548913  0.0392549972590586 13.3087003943362614
  9.7733510292081593  3.9278497042571616  3.4331193544599654
  2.8933964391124469  7.9006752304660095  8.3361487798273277
  5.1161539795333697  9.2213591007676268 13.2801189761232994
  5.1675426110442997  1.2718496710995977  3.5214376018475129
 -1.6975761074827680  5.3498934396291684  8.4121793047631144
 12.0342795038077721  2.8245138742904357 13.3187203529792448
  5.0849150338462792  6.7359309178492186  3.3870854617151926
 -1.7574659885419370 10.6387671371420449  8.4083255480148971
  6.0447856577983741  3.7722019031734346  8.9020074413606327
  7.5680774326361080  2.0105476381292711 11.9117783683506993
  6.8832080384822358  1.2832463185649723  9.4696280175692049
  6.7382851907211307  4.5739650767204107 11.8138024530105206
  8.5262004665935134  3.4821040445790596  9.8550249187259098
  4.8739401749282596  2.6917927647565780 11.0635960628946766
  7.4426664961598528  5.9983983963322940  9.7335799604444482
  4.5499459032706717  5.4865619398675012 10.4204966538035411
