 O Si Au 
 1.0000000000000000
    13.7029250099999995    0.0000001400000000    0.0000007200000000
     0.0000001300000000   12.6471261899999998   -0.0000012000000000
     0.0000009800000000   -0.0000017600000000   18.5380665200000010
 O   Si  Au 
  96  48   8
Cartesian
 13.5927128185372137 12.3971651863591976  3.2145143614246900
  6.8887039867036490  6.2037930817173965  2.9596510337345445
 13.5812543715269740 12.6046096880894645 12.3864646736776010
  6.8016922774622808  6.3473998077959815 12.2817161224304279
 13.6851650909806537 12.5473747488505669 16.2913365491293831
  6.7540896194336906  6.2059639644653615 16.2291130248426434
 13.4322853259918809 12.3821748420107358  6.7577361628928294
  6.7845386597983488  6.1620954019284682  6.7159139695667980
  1.7673284423467011  0.2021243961345356  5.0035436125797874
  8.6965301669032442  6.5998716948900400  4.8841009386113026
 11.6207503352169557  0.3074077804221778  4.9491321143775258
  4.9882003362405554  6.5429884307447290  4.8193309693069430
  1.7624066888277921 12.2361768537807958 14.2253787400348788
  8.4497490618058748  5.8294573216211241 14.2955003066748176
 11.9286459470118231 12.1763383384799226 14.2918625332239611
  5.0887084929118620  5.9479267203588977 14.2121077388769077
  1.6657127968801664  1.8241874612660274  2.8393880636320450
  8.3961373016262062  8.3817552048557502  2.9525699210197129
 11.9578732997891333  1.8909747652514663  2.8193142819889543
  4.9572812494110092  8.2298874658544499  2.9610761319431527
  1.5934933498586623 10.4215993708642003 12.2523272507266388
  8.5744607539957816  4.4189566919694423 12.0037925930029932
 11.8789528453517175 10.4513274380159835 12.1821895698038407
  5.0259574532410589  4.4755323226978776 11.8701874434904084
 11.7993196221689018 10.6182717501227213 16.4868566937630199
  4.7829219275464476  4.4590751999669820 16.3646878996630072
  1.8734325377454946 10.5155623320114380 16.2906405730283588
  8.7557601501026063  4.5494604369517457 16.5790027938776454
 11.6889445789295667  1.7535763538711988  7.1285542097473842
  4.7962113847502224  8.1204018022132445  6.9200865678946464
  1.5989346954531976  1.6519009426551376  7.1478985324049162
  8.6252161614968745  8.1574212379705831  6.9878515554514085
  2.5361846282914264 12.0254457215312325  2.7012242293326114
  9.5390706850304845  5.9361587146109516  2.5049661870454818
 11.1136485148666111 12.0597932646107253  2.5882614853788732
  4.2431910837560816  5.7086233257725940  2.5275940505068846
  2.4259781193195011  0.2803087951157854 11.8261805595841256
  9.2663977809763391  6.9322281563589589 11.8543414646989316
 11.0266771103865509  0.4632640962821563 11.9445580424672393
  4.2208866587207217  7.0154273425424272 11.9426050047721279
 11.2128315959017186  0.4654231473804564 16.6591311369294957
  4.2464943795090804  7.0335217831608192 16.5290867233374392
  2.5620678696975308  0.4872163531965242 16.4559378992849723
  9.2053650625732821  7.2497639218467764 16.4577741729451148
 10.8867450402938388 11.9344590387687433  7.2665246154838510
  4.2120215626105297  5.5673618126816962  7.2523082110674739
  2.2438452931667552 11.7287020973765266  7.2483735599485604
  9.2844905927311103  5.5635350953005016  7.2708782445697295
  1.9340191826158541 10.7863959794581419  0.3848802976985332
  8.5550861354989518  4.0574550916939813  0.7064244186070235
 11.4602926582337794 10.4406653603223880  0.6160334655297749
  4.8827555241008058  4.1531552509847298  0.4400787312240496
  1.7279666490784971  1.8631423539819323  9.7863104839145603
  8.7687181178747338  7.9590066901736582  9.4789305944971467
 11.7247655432940636  1.8896658715626458  9.9035322065489169
  4.6924291342981768  8.0959279674506011  9.5885231528339538
 11.7204575123007562  1.7504216842750209  0.1599791439188424
  4.8052862058638608  8.0893862423258369  0.2663740750495720
  1.8762443916124465  1.8252345266971737  0.0940116513819208
  8.7737679828770840  8.3739175378680812  0.2230593226237176
 11.5582187480137968 10.5362082533119334  9.4066939542483556
  4.7573229759407871  3.7886510787459153  9.2999079295147506
  1.7845826905988929 10.6771931186660538  9.5355646897376918
  8.5370270951973470  4.1217850199813695  9.3132999957589657
 13.6791883390388023  9.3885318607573680 17.9054642823574213
  6.8072197360287268  2.9074210689446796 17.6179178057268935
 13.4783737389419809  3.1852615373654314  8.4508805703609458
  6.7090999278144459  9.3789650217259855  8.3245004368754536
 13.6397010496191182  3.1026021156747365  1.3328555196067062
  6.6609962604646551  9.5493959607475958  1.2681264720251813
 13.5825742425373726  9.2589183593737125 10.5446626641719519
  6.7095430100023874  2.7185743135066227 10.8798150381712500
  2.3876846012433890  8.4089517532165523 17.8518815399189599
  9.3465162831817405  2.1809045559497338 17.3229931271080595
 11.2217584988944701  8.3676797389162942 17.6289280188243183
  4.2858612357414181  2.1047627236832609 17.4312553622854409
  2.3226994298759878  3.9371895065092652  8.1881788260088602
  9.0970666166099399 10.4117839980037612  8.4127683558014485
 10.9025250230909005  3.8746600477141238  8.2361956557529332
  4.2234189336386407 10.3213786405566488  8.2229776078369827
 11.2179725856497967  4.1480608177079930  1.5892471344529153
  4.1535524444655483 10.3615728383129309  1.6960174654919551
  2.5651580903072517  3.8999903796364945  1.6393931001811677
  9.0699731152139300 10.5489762310617881  1.7251621419353542
 11.1834538071916523  8.2896855515626804 10.8851642744970274
  4.0715978494206579  2.0665019805139702 11.0073687234551976
  2.1536120888101986  8.1887782311674542 10.6936824521006422
  9.3479180349775284  2.1763075414265347 11.0532681306924925
  9.7121272193400152  0.0241045986872021  0.3977150748583833
  3.0567429307761058  6.0369359809438192  0.1332348964553752
  3.7951251224233857 12.6034521302610436  0.3221355416132204
 10.3209571461506489  6.0622219839022344 18.5357733282676342
  9.8623827331520886 12.5982988796388025  9.5216552644411543
  3.0934135576762665  5.9659557362068245  9.6684028726460021
  3.5339337439051683  0.0779753831809645  9.3623846529581147
 10.4306971055518183  5.8710546723770873  9.8021989815753994
  1.4527363331591290  0.2954044342381570  3.4200840475837588
  8.3850879509970895  6.8042337174568601  3.3151607477007583
 12.0821784410610089  0.3838366639155437  3.4197266276369040
  5.3138664385106145  6.7115374640265681  3.2724121844894767
  1.4324760711716493 12.0625504222150095 12.6497535718498710
  8.3140697368440293  5.8921432116010282 12.6369452710778329
 12.0521136003738256 12.0904822115977115 12.6833716131621905
  5.2713044068052533  5.9448044237337907 12.6269514199232784
 12.1901264793253237 12.0772866549563105 15.9002778557455109
  5.2064476688311787  5.9601363640348941 15.7509070420863910
  1.5379062689000609 12.0533580658490287 15.8060382956336305
  8.2812483886322710  5.9341519772137845 15.8791941486637853
 11.9159125195596172  0.2613608375463535  6.5355853862333237
  5.1566829554710312  6.5538465946093591  6.4468721851228041
  1.3180941596348166  0.1325899650130177  6.5553206526026182
  8.3246423221099910  6.6387278109053929  6.4836804161228807
  1.5781915747235302  9.7479264059946331 17.7030527670385993
  8.3680751258126005  3.4258180516878882 17.7149768519086734
 12.0765772700326455  9.6802946001523775 17.8570164166624998
  5.2269233348546535  3.4340274092101777 17.5724272966736805
  1.3233446968886968  2.6841783563855870  8.4144091140691089
  8.2646032154294033  8.9659666800781928  8.3431570825587560
 11.9239124124296225  2.6660632248492986  8.4372728555989287
  5.1045500272983384  9.0028814615235042  8.3179432887419704
 12.0658232346696721  2.7674596955839981  1.4382918343254953
  5.1000640165658702  9.0537049617768162  1.5316328174989455
  1.5155630694430207  2.6904356777742744  1.4665590580189212
  8.2142640657414869  9.1567574460045495  1.5258622566250384
 12.0281789858243009  9.6776928743694626 10.7591733695513980
  5.1730589687282862  3.2119572894745918 10.7985158491404043
  1.4486025093064847  9.6661865349108869 10.7847974279634915
  8.2626702141599360  3.3747469593384571 10.7613145456637955
 10.3419493078009630 11.4462504297927392  1.2871092801916000
  3.6812147291411605  4.9757864798238938  1.1788984007383367
  3.0932077625107390 11.4814418731458616  1.2503536568695357
  9.8338952042819692  5.0186515723754228  1.1955006708073441
 10.4432911810597862  1.1130520652329705 10.5606968458620880
  3.5596287786691625  7.3353179434344566 10.4474739109880268
  2.9274115228872040  1.0947189713803207 10.5173208992666005
  9.9294884184679137  7.3123326147599128 10.4551775560255624
  3.1090965276846281  1.1113513965716948 17.8653066111147325
  9.8811329727807209  7.4876903828342716 17.8985959095064899
 10.4544047804882272  1.0765967814622177 17.9492664597718417
  3.5701095873909829  7.3877012423532360 18.0149390098245483
  3.0176914679532394 11.2996054710206675  8.6279830400649011
  9.8125298607497751  4.9225577447471833  8.6705105121420196
 10.3618792301111800 11.3481034788529005  8.6490771457232327
  3.6385294126184839  4.7815225003841029  8.6152037334643712
  6.7635293368058464  9.1556596133287584 11.3489252088030792
  5.0889291193426134 12.2190837646219368 13.1693744560113650
  4.3982046950389222 10.5545842894675150 11.1451226391238567
  7.5284260562451744 11.3471143737651623 13.3919217455503485
  5.3219553049143107  9.6180890296826576 13.6388002699821911
  6.8545692433744421 11.9002996539874939 10.8587484427098087
  8.0645375055573751  8.7599625639889620 13.7550143368581548
  9.1207647585850591 10.2818452254010690 11.5863570741792845
