 O Si Au 
 1.0000000000000000
    11.9587094399999998   -0.0000003700000000    0.0000010700000000
    -0.0000003700000000   11.9587162199999995   -0.0000031600000000
     0.0000010700000000   -0.0000031600000000   11.9587174399999991
 O   Si  Au 
  48  24   8
Cartesian
 11.0033613305005264  1.9536608262940567  6.7151136581788196
  5.3966772992681626 11.5090002587824483  3.2409170180472344
  1.9665561668690801  5.4963075182242624  0.2788134702077230
  5.3441336200802816 11.2467143942929670 10.0565106453358233
  8.9229772069422086  5.3061083180894828  0.8379130037179051
  2.1034467220909359 11.1992446416580034  6.7675983059165441
 11.0280728799168237  5.3520557270308684  3.3513228653558444
  5.4671030530215283  1.8790229591068708  0.7687306258884667
 11.3702189825442765  5.4823448364875782 10.2037332492579864
  5.1731566839584815  8.6838062448158446  0.7217262584492620
 11.3322669977725425  8.9117301996462555  6.6683774204093273
  9.0719238721267086 11.3930044524394081  6.7558121271349876
  0.8202083659188482  0.9153996088011310  5.0946490476735322
  3.3824484258243475  0.9031916387387671  2.2086557075620510
  0.8495231117831356  3.8341314938173472  2.1239277913246246
  0.5705854537704673  0.6480041970739161  8.5631106571027775
  3.4326838560973991  0.5785499878903653 11.4654347307331914
  0.6742477812336468  3.4247772883534982 11.4017832190807216
 10.1951035896979896  0.5394808982542108  4.6530702783856430
  7.5687939958079120  0.4623533900486017  1.8195593556530174
 10.2764087323904771  3.1483439761853291  1.8783560750258477
  9.9290745728408893  0.8983278564170097  8.8831770531978602
  7.2591572955668857  0.7131448006960526 11.2440907776809809
 10.0853676209376353  3.4160343897122880 11.2080079957281029
  0.6988731936720198 10.1629994837813751  4.8002217739645472
  0.4305863118289755  7.0608123096887612  1.8095471681137685
  3.4644113269867445 10.1618716971595440  2.0625617493231232
  0.8262008056416079  9.9128582042216795  8.7648424672196921
  0.6564301147735876  7.5738930387633534 11.2037535334741118
  3.3227349404025111 10.0306790187111368 11.3594513187839485
 10.1957133173017969 10.2413476902414047  8.8192856386586840
  7.3071852442125875 10.1584566415123021 11.5882075556927528
  9.9964650440340179  7.3812029513451236 11.5075326305892798
  9.9835679676967093  9.9098477818495834  4.7318068491274250
  7.0756849612437858  9.8668983454090409  2.1537079070970426
  9.8078424740961534  7.4479709315434413  2.1914414143541374
 11.5224753842358894  2.9681713699239660  4.2842655404568575
  2.9764733026796186 11.4567326853009188  4.3206648686568183
  2.9580030202394392  3.0143003193695894  0.7786839398606815
 11.5213754896940817  3.0590488119147872  9.0803318672195328
  2.7731991260248758 11.4757726422702895  9.2979935425145506
  7.8136140133380270 11.3868674520516233  4.2876495732235416
  7.8654664341424025  2.9490379011836900  0.6436666495115905
  7.8483426572696029 11.3335062682928776  9.0988514920338570
 11.4892395828218135  7.8718417741450084  4.2348650521371036
  2.7095677397662365  8.0122472354307384  0.8584772586680933
 11.1844902410967197  7.7876982756549129  9.0148404653146272
  7.6572042894745964  7.7066029105616547  0.6851480119572178
 11.3375738841759723  1.5875879483397812  5.1360429981129654
  3.8501707508816274 11.4736931113864404  2.9484399056560400
  1.6423436777916030  3.9726906806425157  0.6745691810550561
 11.2898198142048880  1.6500353969509667  8.3504402709741612
  3.7721416874923772 11.2790853838201901 10.4653994948091853
  6.9699595873848015 11.3245876878831773  2.8999361446097160
  9.3009596388735876  3.7053254795983519  0.6714715528538122
  6.9329459042827759 11.3039682722163537 10.4388968614550155
  1.6385399129993623 11.4264129430900336  5.2759918027260957
 11.3688044980053569  3.8278406904050897  2.8551367388970830
  3.8214328866592036  1.6195208993316230  0.7751629021509783
  1.5014725662911801 11.3307804528336575  8.2787455219219623
 11.4056661036165785  3.8967609490490629 10.4517306835866215
 11.1988460342357321  6.9176200467093780  2.9250964372453523
  3.6811174069564325  9.2195703949738341  0.7807546910106735
 11.2440054229764090  7.0538037920112879 10.4713009935111110
 11.3917853913491278  9.2273602308677560  8.2960306578075542
  9.0762168954117666  6.9247518894712936  0.8231173840850871
 11.3563691447949893  9.2276301576519302  5.0619792088195084
  1.4319302004953300  7.0088986261916970  0.5589267251784997
  9.2714987276126024 11.5097361628220973  8.3518170426786380
  6.7732830627335350  9.0866924614406006  0.7717847688409828
  9.1939913017663990 11.2569052373914307  5.1410137622693632
  7.0810321873610418  1.5102610842281337  0.6986902143237350
  6.4267501116510921  6.6268091999366545  3.4142456591262937
  6.2200183763153696  2.4630092220720243  3.6394041573829838
  8.1359201795795446  4.4633770636909817  3.8120795481311096
  3.8889858851974348  3.9274565285819567  3.3872168130122473
  5.8747767230636976  4.6547702859296400  5.1768791642764436
  6.0464683498816267  4.4266874432882188  1.9447667806054822
  4.0472305049728634  6.3515491892558558  4.6771345134247975
  4.0593405010104808  6.1826539454532456  2.0453607173434691
